Geometry = VaspFormat {
  <<< "Ni2-CPDPy.vasp"
}

Driver = VelocityVerlet{

  # Possibly should be a bit smaller for real calculations:
  TimeStep [fs] = 1.0
  
  Thermostat = NoseHoover {
    # Target temperature
    Temperature [Kelvin] = 593
    # Approximately the highest vibrational frequency of the molecule
    CouplingStrength [cm^-1] = 3200
  }
  
  Barostat { # Apply presure control
    Pressure [Pa] = 1.0E5
    Timescale [ps] = 0.1
  }
  
  Steps = 20000 # 20 ps total
  
  MovedAtoms = 1:-1
  
  MDRestartFrequency = 100 # Only write output every 100 steps
  
  OutputPrefix = "geo_end"
  
}

Hamiltonian = DFTB {
  Scc = Yes
  SccTolerance = 1e-4
  SlaterKosterFiles = Type2FileNames {
    Prefix = "./mio-1-1+trans3d-0-1/"
    Separator = "-"
    Suffix = ".skf"
  }
  MaxAngularMomentum {
    Ni = "d"
     N = "p"
     C = "p"
     H = "s"
  }
  
  Charge = 0.0
  
  # electronic temperature is controlled by the thermostat
  Filling = Fermi {
    Temperature [Kelvin] = 593
  }
  
  KPointsAndWeights = SuperCellFolding {
    2 0 0
    0 1 0
    0 0 2
    0.0 0.0 0.0
  }
  
  # DftD3: Dispersion is calculated as in the s-dftd3 library [29, 30] 
  #Dispersion = DftD3 {
  #  Damping = ZeroDamping {
  #    sr6 = 0.7461
  #    alpha6 = 14.0
  #  }
  #  s6 = 1.0
  #  s8 = 3.209
  #}
  
  # SimpleDftD3: DFTB+ internal implementation of the D3-dispersion model.
  Dispersion = SimpleDftD3 {
    a1 = 0.5719
    a2 = 3.6017
    s6 = 1.0
    s8 = 0.5883
  }
  
  # DftD4: Dispersion is calculated using the D4 model
  # Ts: Dispersionis calculated using the Tkatchenko-Scheffler model [89] adapted for DFTB
  # The mbd library for TS-dispersion
  # Dispersion = TS {
  #   Damping = 20.0
  #   RangeSeparation = 0.94
  #   ReferenceSet = "TS"
  # }
}

Analysis {
  MullikenAnalysis = No
  WriteBandOut = No
}

Options {  
  WriteDetailedOut = No
  RandomSeed = 589105024 # specify the rand number generator
  # starting seed
}

# if run in MPI parallel, allow openMP threads to be used
Parallel = {
  UseOmpThreads = No
}

ParserOptions {
  ParserVersion = 13
}
