Al4
1.0
        8.0778598785         0.0000000000         0.0000000000
        0.0000000000         8.0778598785         0.0000000000
        0.0000000000         0.0000000000         8.0778598785
   Al
   32
Cartesian
     0.000000000         0.000000000         0.000000000
     0.000000000         0.000000000         4.038929939
     0.000000000         4.038929939         0.000000000
     0.000000000         4.038929939         4.038929939
     4.038929939         0.000000000         0.000000000
     4.038929939         0.000000000         4.038929939
     4.038929939         4.038929939         0.000000000
     4.038929939         4.038929939         4.038929939
     0.000000000         2.019464970         2.019464970
     0.000000000         2.019464970         6.058394909
     0.000000000         6.058394909         2.019464970
     0.000000000         6.058394909         6.058394909
     4.038929939         2.019464970         2.019464970
     4.038929939         2.019464970         6.058394909
     4.038929939         6.058394909         2.019464970
     4.038929939         6.058394909         6.058394909
     2.019464970         0.000000000         2.019464970
     2.019464970         0.000000000         6.058394909
     2.019464970         4.038929939         2.019464970
     2.019464970         4.038929939         6.058394909
     6.058394909         0.000000000         2.019464970
     6.058394909         0.000000000         6.058394909
     6.058394909         4.038929939         2.019464970
     6.058394909         4.038929939         6.058394909
     2.019464970         2.019464970         0.000000000
     2.019464970         2.019464970         4.038929939
     2.019464970         6.058394909         0.000000000
     2.019464970         6.058394909         4.038929939
     6.058394909         2.019464970         0.000000000
     6.058394909         2.019464970         4.038929939
     6.058394909         6.058394909         0.000000000
     6.058394909         6.058394909         4.038929939
