Cu4
1.0
       10.8637857437         0.0000000000         0.0000000000
        0.0000000000        10.8637857437         0.0000000000
        0.0000000000         0.0000000000        10.8637857437
   Cu
  108
Cartesian
     0.000000000         0.000000000         0.000000000
     0.000000000         0.000000000         3.621262022
     0.000000000         0.000000000         7.242524045
     0.000000000         3.621262022         0.000000000
     0.000000000         3.621262022         3.621262022
     0.000000000         3.621262022         7.242524045
     0.000000000         7.242524045         0.000000000
     0.000000000         7.242524045         3.621262022
     0.000000000         7.242524045         7.242524045
     3.621262022         0.000000000         0.000000000
     3.621262022         0.000000000         3.621262022
     3.621262022         0.000000000         7.242524045
     3.621262022         3.621262022         0.000000000
     3.621262022         3.621262022         3.621262022
     3.621262022         3.621262022         7.242524045
     3.621262022         7.242524045         0.000000000
     3.621262022         7.242524045         3.621262022
     3.621262022         7.242524045         7.242524045
     7.242524045         0.000000000         0.000000000
     7.242524045         0.000000000         3.621262022
     7.242524045         0.000000000         7.242524045
     7.242524045         3.621262022         0.000000000
     7.242524045         3.621262022         3.621262022
     7.242524045         3.621262022         7.242524045
     7.242524045         7.242524045         0.000000000
     7.242524045         7.242524045         3.621262022
     7.242524045         7.242524045         7.242524045
     0.000000000         1.810631011         1.810631011
     0.000000000         1.810631011         5.431892872
     0.000000000         1.810631011         9.053154571
     0.000000000         5.431892872         1.810631011
     0.000000000         5.431892872         5.431892872
     0.000000000         5.431892872         9.053154571
     0.000000000         9.053154571         1.810631011
     0.000000000         9.053154571         5.431892872
     0.000000000         9.053154571         9.053154571
     3.621262022         1.810631011         1.810631011
     3.621262022         1.810631011         5.431892872
     3.621262022         1.810631011         9.053154571
     3.621262022         5.431892872         1.810631011
     3.621262022         5.431892872         5.431892872
     3.621262022         5.431892872         9.053154571
     3.621262022         9.053154571         1.810631011
     3.621262022         9.053154571         5.431892872
     3.621262022         9.053154571         9.053154571
     7.242524045         1.810631011         1.810631011
     7.242524045         1.810631011         5.431892872
     7.242524045         1.810631011         9.053154571
     7.242524045         5.431892872         1.810631011
     7.242524045         5.431892872         5.431892872
     7.242524045         5.431892872         9.053154571
     7.242524045         9.053154571         1.810631011
     7.242524045         9.053154571         5.431892872
     7.242524045         9.053154571         9.053154571
     1.810631011         0.000000000         1.810631011
     1.810631011         0.000000000         5.431892872
     1.810631011         0.000000000         9.053154571
     1.810631011         3.621262022         1.810631011
     1.810631011         3.621262022         5.431892872
     1.810631011         3.621262022         9.053154571
     1.810631011         7.242524045         1.810631011
     1.810631011         7.242524045         5.431892872
     1.810631011         7.242524045         9.053154571
     5.431892872         0.000000000         1.810631011
     5.431892872         0.000000000         5.431892872
     5.431892872         0.000000000         9.053154571
     5.431892872         3.621262022         1.810631011
     5.431892872         3.621262022         5.431892872
     5.431892872         3.621262022         9.053154571
     5.431892872         7.242524045         1.810631011
     5.431892872         7.242524045         5.431892872
     5.431892872         7.242524045         9.053154571
     9.053154571         0.000000000         1.810631011
     9.053154571         0.000000000         5.431892872
     9.053154571         0.000000000         9.053154571
     9.053154571         3.621262022         1.810631011
     9.053154571         3.621262022         5.431892872
     9.053154571         3.621262022         9.053154571
     9.053154571         7.242524045         1.810631011
     9.053154571         7.242524045         5.431892872
     9.053154571         7.242524045         9.053154571
     1.810631011         1.810631011         0.000000000
     1.810631011         1.810631011         3.621262022
     1.810631011         1.810631011         7.242524045
     1.810631011         5.431892872         0.000000000
     1.810631011         5.431892872         3.621262022
     1.810631011         5.431892872         7.242524045
     1.810631011         9.053154571         0.000000000
     1.810631011         9.053154571         3.621262022
     1.810631011         9.053154571         7.242524045
     5.431892872         1.810631011         0.000000000
     5.431892872         1.810631011         3.621262022
     5.431892872         1.810631011         7.242524045
     5.431892872         5.431892872         0.000000000
     5.431892872         5.431892872         3.621262022
     5.431892872         5.431892872         7.242524045
     5.431892872         9.053154571         0.000000000
     5.431892872         9.053154571         3.621262022
     5.431892872         9.053154571         7.242524045
     9.053154571         1.810631011         0.000000000
     9.053154571         1.810631011         3.621262022
     9.053154571         1.810631011         7.242524045
     9.053154571         5.431892872         0.000000000
     9.053154571         5.431892872         3.621262022
     9.053154571         5.431892872         7.242524045
     9.053154571         9.053154571         0.000000000
     9.053154571         9.053154571         3.621262022
     9.053154571         9.053154571         7.242524045
