Geometry = VaspFormat {
Ga12 Fe4
1.0
12.5343961716         0.0000000000         0.0000000000
0.0000000000        12.5343961716         0.0000000000
0.0000000000         0.0000000000        13.1619644165
Ga   Fe
96   32
Cartesian
5.291000696         0.976197577         5.021124752
5.291000696         0.976197577        11.602106960
5.291000696         7.243395850         5.021124752
5.291000696         7.243395850        11.602106960
11.558199155         0.976197577         5.021124752
11.558199155         0.976197577        11.602106960
11.558199155         7.243395850         5.021124752
11.558199155         7.243395850        11.602106960
4.109796433         4.109796433         4.850348560
4.109796433         4.109796433        11.431330768
4.109796433        10.376994145         4.850348560
4.109796433        10.376994145        11.431330768
10.376994145         4.109796433         4.850348560
10.376994145         4.109796433        11.431330768
10.376994145        10.376994145         4.850348560
10.376994145        10.376994145        11.431330768
0.976197577         5.291000696         1.559857260
0.976197577         5.291000696         8.140839664
0.976197577        11.558199155         1.559857260
0.976197577        11.558199155         8.140839664
7.243395850         5.291000696         1.559857260
7.243395850         5.291000696         8.140839664
7.243395850        11.558199155         1.559857260
7.243395850        11.558199155         8.140839664
0.976197577         5.291000696         5.021124752
0.976197577         5.291000696        11.602106960
0.976197577        11.558199155         5.021124752
0.976197577        11.558199155        11.602106960
7.243395850         5.291000696         5.021124752
7.243395850         5.291000696        11.602106960
7.243395850        11.558199155         5.021124752
7.243395850        11.558199155        11.602106960
0.000000000         3.133599043         0.000000000
0.000000000         3.133599043         6.580982208
0.000000000         9.400797129         0.000000000
0.000000000         9.400797129         6.580982208
6.267198086         3.133599043         0.000000000
6.267198086         3.133599043         6.580982208
6.267198086         9.400797129         0.000000000
6.267198086         9.400797129         6.580982208
2.157401466         2.157401466         1.730633844
2.157401466         2.157401466         8.311615856
2.157401466         8.424599365         1.730633844
2.157401466         8.424599365         8.311615856
8.424599365         2.157401466         1.730633844
8.424599365         2.157401466         8.311615856
8.424599365         8.424599365         1.730633844
8.424599365         8.424599365         8.311615856
3.133599043         0.000000000         3.290491104
3.133599043         0.000000000         9.871473312
3.133599043         6.267198086         3.290491104
3.133599043         6.267198086         9.871473312
9.400797129         0.000000000         3.290491104
9.400797129         0.000000000         9.871473312
9.400797129         6.267198086         3.290491104
9.400797129         6.267198086         9.871473312
4.109796433         4.109796433         1.730633844
4.109796433         4.109796433         8.311615856
4.109796433        10.376994145         1.730633844
4.109796433        10.376994145         8.311615856
10.376994145         4.109796433         1.730633844
10.376994145         4.109796433         8.311615856
10.376994145        10.376994145         1.730633844
10.376994145        10.376994145         8.311615856
5.291000696         0.976197577         1.559857260
5.291000696         0.976197577         8.140839664
5.291000696         7.243395850         1.559857260
5.291000696         7.243395850         8.140839664
11.558199155         0.976197577         1.559857260
11.558199155         0.976197577         8.140839664
11.558199155         7.243395850         1.559857260
11.558199155         7.243395850         8.140839664
2.157401466         2.157401466         4.850348560
2.157401466         2.157401466        11.431330768
2.157401466         8.424599365         4.850348560
2.157401466         8.424599365        11.431330768
8.424599365         2.157401466         4.850348560
8.424599365         2.157401466        11.431330768
8.424599365         8.424599365         4.850348560
8.424599365         8.424599365        11.431330768
0.000000000         3.133599043         3.290491104
0.000000000         3.133599043         9.871473312
0.000000000         9.400797129         3.290491104
0.000000000         9.400797129         9.871473312
6.267198086         3.133599043         3.290491104
6.267198086         3.133599043         9.871473312
6.267198086         9.400797129         3.290491104
6.267198086         9.400797129         9.871473312
3.133599043         0.000000000         0.000000000
3.133599043         0.000000000         6.580982208
3.133599043         6.267198086         0.000000000
3.133599043         6.267198086         6.580982208
9.400797129         0.000000000         0.000000000
9.400797129         0.000000000         6.580982208
9.400797129         6.267198086         0.000000000
9.400797129         6.267198086         6.580982208
2.153735219         4.113462867         3.290491104
2.153735219         4.113462867         9.871473312
2.153735219        10.380660953         3.290491104
2.153735219        10.380660953         9.871473312
8.420933305         4.113462867         3.290491104
8.420933305         4.113462867         9.871473312
8.420933305        10.380660953         3.290491104
8.420933305        10.380660953         9.871473312
4.113462867         2.153735219         3.290491104
4.113462867         2.153735219         9.871473312
4.113462867         8.420933305         3.290491104
4.113462867         8.420933305         9.871473312
10.380660953         2.153735219         3.290491104
10.380660953         2.153735219         9.871473312
10.380660953         8.420933305         3.290491104
10.380660953         8.420933305         9.871473312
5.287334262         5.287334262         0.000000000
5.287334262         5.287334262         6.580982208
5.287334262        11.554532348         0.000000000
5.287334262        11.554532348         6.580982208
11.554532348         5.287334262         0.000000000
11.554532348         5.287334262         6.580982208
11.554532348        11.554532348         0.000000000
11.554532348        11.554532348         6.580982208
0.979863917         0.979863917         0.000000000
0.979863917         0.979863917         6.580982208
0.979863917         7.247061910         0.000000000
0.979863917         7.247061910         6.580982208
7.247061910         0.979863917         0.000000000
7.247061910         0.979863917         6.580982208
7.247061910         7.247061910         0.000000000
7.247061910         7.247061910         6.580982208
}
Hamiltonian = xTB {
  Method = "GFN1-xTB"
  SCC = Yes
  SCCTolerance = 1.0e-3
  MaxSCCIterations = 1000
  Mixer = Broyden {
    MixingParameter = 0.05
    InverseJacobiWeight = 0.05
    WeightFactor = 0.05
    MinimalWeight = 1.0000000000000000
    MaximalWeight = 100000.00000000000
  }
  Charge = 0.0
  KPointsAndWeights = SuperCellFolding {
1 0 0
0 1 0
0 0 1
0.0 0.0 0.0
  }
  ShellResolvedSCC = No
  SpinPolarisation = {}
  Solver = RelativelyRobust {}
  ReadInitialCharges = No
  InitialCharges = {}
  EwaldParameter = 0.0000000000000000
  EwaldTolerance = 1.0000000000000001E-009
  ConvergentSCCOnly = Yes
  ElectricField = {}
  Dispersion = {}
  Solvation = {}
  Electrostatics = GammaFunctional {}
  Differentiation = FiniteDiff {
    Delta = 1.2207031250000000E-004
  }
  ForceEvaluation = "Traditional"
  Filling = MethfesselPaxton {
    Order = 2
    Temperature [Kelvin] = 300
    IndependentKFilling = No
  }
}
Analysis = {
  ProjectStates = {}
  WriteEigenvectors = No
  WriteBandOut = Yes
  MullikenAnalysis = Yes
  WriteNetCharges = No
  AtomResolvedEnergies = No
  CalculateForces = No
}
Options = {
  WriteDetailedOut = Yes
  WriteAutotestTag = No
  WriteDetailedXML = No
  WriteResultsTag = No
  RestartFrequency = 20
  RandomSeed = 0
  WriteHS = No
  WriteRealHS = No
  MinimiseMemoryUsage = No
  ShowFoldedCoords = No
  TimingVerbosity = 1
  WriteCharges = Yes
  WriteChargesAsText = No
  BinaryAccessTypes = {
"stream"
  }
}
ParserOptions = {
  ParserVersion = 13
  WriteHSDInput = Yes
  StopAfterParsing = No
  IgnoreUnprocessedNodes = No
}
Parallel = {
  UseOmpThreads = Yes
  Groups = 1
  Blacs = BlockSize {
32
  }
}
Reks = None {}
Driver = {}
ExcitedState = {}
