Fe4 S8
1.0
       10.7936477661         0.0000000000         0.0000000000
        0.0000000000        10.7936477661         0.0000000000
        0.0000000000         0.0000000000        10.7936477661
   Fe    S
   32   64
Cartesian
     0.000000000         2.698411942         2.698411942
     0.000000000         2.698411942         8.095235825
     0.000000000         8.095235825         2.698411942
     0.000000000         8.095235825         8.095235825
     5.396823883         2.698411942         2.698411942
     5.396823883         2.698411942         8.095235825
     5.396823883         8.095235825         2.698411942
     5.396823883         8.095235825         8.095235825
     2.698411942         2.698411942         0.000000000
     2.698411942         2.698411942         5.396823883
     2.698411942         8.095235825         0.000000000
     2.698411942         8.095235825         5.396823883
     8.095235825         2.698411942         0.000000000
     8.095235825         2.698411942         5.396823883
     8.095235825         8.095235825         0.000000000
     8.095235825         8.095235825         5.396823883
     0.000000000         0.000000000         0.000000000
     0.000000000         0.000000000         5.396823883
     0.000000000         5.396823883         0.000000000
     0.000000000         5.396823883         5.396823883
     5.396823883         0.000000000         0.000000000
     5.396823883         0.000000000         5.396823883
     5.396823883         5.396823883         0.000000000
     5.396823883         5.396823883         5.396823883
     2.698411942         0.000000000         2.698411942
     2.698411942         0.000000000         8.095235825
     2.698411942         5.396823883         2.698411942
     2.698411942         5.396823883         8.095235825
     8.095235825         0.000000000         2.698411942
     8.095235825         0.000000000         8.095235825
     8.095235825         5.396823883         2.698411942
     8.095235825         5.396823883         8.095235825
     2.079827987         0.618583994         4.778240090
     2.079827987         0.618583994        10.175063973
     2.079827987         6.015407676         4.778240090
     2.079827987         6.015407676        10.175063973
     7.476652031         0.618583994         4.778240090
     7.476652031         0.618583994        10.175063973
     7.476652031         6.015407676         4.778240090
     7.476652031         6.015407676        10.175063973
     3.316995735         4.778240090         0.618583793
     3.316995735         4.778240090         6.015407676
     3.316995735        10.175063973         0.618583793
     3.316995735        10.175063973         6.015407676
     8.713819618         4.778240090         0.618583793
     8.713819618         4.778240090         6.015407676
     8.713819618        10.175063973         0.618583793
     8.713819618        10.175063973         6.015407676
     0.618583994         4.778240090         2.079828309
     0.618583994         4.778240090         7.476652031
     0.618583994        10.175063973         2.079828309
     0.618583994        10.175063973         7.476652031
     6.015407676         4.778240090         2.079828309
     6.015407676         4.778240090         7.476652031
     6.015407676        10.175063973         2.079828309
     6.015407676        10.175063973         7.476652031
     4.778240090         0.618583994         3.316995735
     4.778240090         0.618583994         8.713819618
     4.778240090         6.015407676         3.316995735
     4.778240090         6.015407676         8.713819618
    10.175063973         0.618583994         3.316995735
    10.175063973         0.618583994         8.713819618
    10.175063973         6.015407676         3.316995735
    10.175063973         6.015407676         8.713819618
     3.316995735         3.316995735         3.316995735
     3.316995735         3.316995735         8.713819618
     3.316995735         8.713819618         3.316995735
     3.316995735         8.713819618         8.713819618
     8.713819618         3.316995735         3.316995735
     8.713819618         3.316995735         8.713819618
     8.713819618         8.713819618         3.316995735
     8.713819618         8.713819618         8.713819618
     2.079827987         2.079827987         2.079828309
     2.079827987         2.079827987         7.476652031
     2.079827987         7.476652031         2.079828309
     2.079827987         7.476652031         7.476652031
     7.476652031         2.079827987         2.079828309
     7.476652031         2.079827987         7.476652031
     7.476652031         7.476652031         2.079828309
     7.476652031         7.476652031         7.476652031
     4.778240090         2.079827987         0.618583793
     4.778240090         2.079827987         6.015407676
     4.778240090         7.476652031         0.618583793
     4.778240090         7.476652031         6.015407676
    10.175063973         2.079827987         0.618583793
    10.175063973         2.079827987         6.015407676
    10.175063973         7.476652031         0.618583793
    10.175063973         7.476652031         6.015407676
     0.618583994         3.316995735         4.778240090
     0.618583994         3.316995735        10.175063973
     0.618583994         8.713819618         4.778240090
     0.618583994         8.713819618        10.175063973
     6.015407676         3.316995735         4.778240090
     6.015407676         3.316995735        10.175063973
     6.015407676         8.713819618         4.778240090
     6.015407676         8.713819618        10.175063973
