Geometry = VaspFormat {
Zr4 Ni4 Sn4
1.0
12.3252801895         0.0000000000         0.0000000000
0.0000000000        12.3252801895         0.0000000000
0.0000000000         0.0000000000        12.3252801895
Zr   Ni   Sn
32   32   32
Cartesian
0.000000000         0.000000000         0.000000000
0.000000000         0.000000000         6.162640095
0.000000000         6.162640095         0.000000000
0.000000000         6.162640095         6.162640095
6.162640095         0.000000000         0.000000000
6.162640095         0.000000000         6.162640095
6.162640095         6.162640095         0.000000000
6.162640095         6.162640095         6.162640095
0.000000000         3.081320047         3.081320047
0.000000000         3.081320047         9.243960142
0.000000000         9.243960142         3.081320047
0.000000000         9.243960142         9.243960142
6.162640095         3.081320047         3.081320047
6.162640095         3.081320047         9.243960142
6.162640095         9.243960142         3.081320047
6.162640095         9.243960142         9.243960142
3.081320047         0.000000000         3.081320047
3.081320047         0.000000000         9.243960142
3.081320047         6.162640095         3.081320047
3.081320047         6.162640095         9.243960142
9.243960142         0.000000000         3.081320047
9.243960142         0.000000000         9.243960142
9.243960142         6.162640095         3.081320047
9.243960142         6.162640095         9.243960142
3.081320047         3.081320047         0.000000000
3.081320047         3.081320047         6.162640095
3.081320047         9.243960142         0.000000000
3.081320047         9.243960142         6.162640095
9.243960142         3.081320047         0.000000000
9.243960142         3.081320047         6.162640095
9.243960142         9.243960142         0.000000000
9.243960142         9.243960142         6.162640095
1.540660024         1.540660024         4.621980071
1.540660024         1.540660024        10.784620166
1.540660024         7.703300118         4.621980071
1.540660024         7.703300118        10.784620166
7.703300118         1.540660024         4.621980071
7.703300118         1.540660024        10.784620166
7.703300118         7.703300118         4.621980071
7.703300118         7.703300118        10.784620166
1.540660024         4.621980071         1.540660024
1.540660024         4.621980071         7.703300118
1.540660024        10.784620166         1.540660024
1.540660024        10.784620166         7.703300118
7.703300118         4.621980071         1.540660024
7.703300118         4.621980071         7.703300118
7.703300118        10.784620166         1.540660024
7.703300118        10.784620166         7.703300118
4.621980071         1.540660024         1.540660024
4.621980071         1.540660024         7.703300118
4.621980071         7.703300118         1.540660024
4.621980071         7.703300118         7.703300118
10.784620166         1.540660024         1.540660024
10.784620166         1.540660024         7.703300118
10.784620166         7.703300118         1.540660024
10.784620166         7.703300118         7.703300118
4.621980071         4.621980071         4.621980071
4.621980071         4.621980071        10.784620166
4.621980071        10.784620166         4.621980071
4.621980071        10.784620166        10.784620166
10.784620166         4.621980071         4.621980071
10.784620166         4.621980071        10.784620166
10.784620166        10.784620166         4.621980071
10.784620166        10.784620166        10.784620166
3.081320047         0.000000000         0.000000000
3.081320047         0.000000000         6.162640095
3.081320047         6.162640095         0.000000000
3.081320047         6.162640095         6.162640095
9.243960142         0.000000000         0.000000000
9.243960142         0.000000000         6.162640095
9.243960142         6.162640095         0.000000000
9.243960142         6.162640095         6.162640095
3.081320047         3.081320047         3.081320047
3.081320047         3.081320047         9.243960142
3.081320047         9.243960142         3.081320047
3.081320047         9.243960142         9.243960142
9.243960142         3.081320047         3.081320047
9.243960142         3.081320047         9.243960142
9.243960142         9.243960142         3.081320047
9.243960142         9.243960142         9.243960142
0.000000000         0.000000000         3.081320047
0.000000000         0.000000000         9.243960142
0.000000000         6.162640095         3.081320047
0.000000000         6.162640095         9.243960142
6.162640095         0.000000000         3.081320047
6.162640095         0.000000000         9.243960142
6.162640095         6.162640095         3.081320047
6.162640095         6.162640095         9.243960142
0.000000000         3.081320047         0.000000000
0.000000000         3.081320047         6.162640095
0.000000000         9.243960142         0.000000000
0.000000000         9.243960142         6.162640095
6.162640095         3.081320047         0.000000000
6.162640095         3.081320047         6.162640095
6.162640095         9.243960142         0.000000000
6.162640095         9.243960142         6.162640095
}
Hamiltonian = xTB {
  Method = "GFN2-xTB"
  SCC = Yes
  SCCTolerance = 1.0e-4
  MaxSCCIterations = 250
  Mixer = Broyden {
    MixingParameter = 0.20000000000000001
    InverseJacobiWeight = 1.0000000000000000E-002
    MinimalWeight = 1.0000000000000000
    MaximalWeight = 100000.00000000000
    WeightFactor = 1.0000000000000000E-002
  }
  Charge = 0.0
  KPointsAndWeights = SuperCellFolding {
1 0 0
0 1 0
0 0 1
0.0 0.0 0.0
  }
  ShellResolvedSCC = No
  SpinPolarisation = {}
  Solver = RelativelyRobust {}
  ReadInitialCharges = No
  InitialCharges = {}
  EwaldParameter = 0.0000000000000000
  EwaldTolerance = 1.0000000000000001E-009
  ConvergentSCCOnly = Yes
  ElectricField = {}
  Dispersion = {}
  Solvation = {}
  Electrostatics = GammaFunctional {}
  Differentiation = FiniteDiff {
    Delta = 1.2207031250000000E-004
  }
  ForceEvaluation = "Traditional"
  Filling = Fermi {
    Temperature = 9.5004460357391702E-004
    IndependentKFilling = No
  }
}
Analysis = {
  ProjectStates = {}
  WriteEigenvectors = No
  WriteBandOut = Yes
  MullikenAnalysis = Yes
  WriteNetCharges = No
  AtomResolvedEnergies = No
  CalculateForces = No
}
Options = {
  WriteDetailedOut = Yes
  WriteAutotestTag = No
  WriteDetailedXML = No
  WriteResultsTag = No
  RestartFrequency = 20
  RandomSeed = 0
  WriteHS = No
  WriteRealHS = No
  MinimiseMemoryUsage = No
  ShowFoldedCoords = No
  TimingVerbosity = 1
  WriteCharges = Yes
  WriteChargesAsText = No
  BinaryAccessTypes = {
 "stream"
  }
}
ParserOptions = {
  ParserVersion = 13
  WriteHSDInput = Yes
  StopAfterParsing = No
  IgnoreUnprocessedNodes = No
}
Parallel = {
  UseOmpThreads = Yes
  Groups = 1
  Blacs = BlockSize {
32
  }
}
Reks = None {}
Driver = {}
ExcitedState = {}
