Sn2 Pb2 F8
1.0
        8.7369422913         0.0000000000         0.0000000000
        0.0000000000         8.7369422913         0.0000000000
        0.0000000000         0.0000000000        11.0853738785
   Sn   Pb    F
    8    8   32
Cartesian
     0.000000000         2.184235573         1.583479217
     0.000000000         6.552706718         1.583479217
     4.368471146         2.184235573         1.583479217
     4.368471146         6.552706718         1.583479217
     2.184235573         0.000000000         9.501894496
     2.184235573         4.368471146         9.501894496
     6.552706718         0.000000000         9.501894496
     6.552706718         4.368471146         9.501894496
     0.000000000         2.184235573         6.860937448
     0.000000000         6.552706718         6.860937448
     4.368471146         2.184235573         6.860937448
     4.368471146         6.552706718         6.860937448
     2.184235573         0.000000000         4.224436430
     2.184235573         4.368471146         4.224436430
     6.552706718         0.000000000         4.224436430
     6.552706718         4.368471146         4.224436430
     0.000000000         2.184235573         3.705208616
     0.000000000         6.552706718         3.705208616
     4.368471146         2.184235573         3.705208616
     4.368471146         6.552706718         3.705208616
     2.184235573         0.000000000         7.380165262
     2.184235573         4.368471146         7.380165262
     6.552706718         0.000000000         7.380165262
     6.552706718         4.368471146         7.380165262
     2.184235573         2.184235573         5.542686939
     2.184235573         6.552706718         5.542686939
     6.552706718         2.184235573         5.542686939
     6.552706718         6.552706718         5.542686939
     0.000000000         0.000000000         5.542686939
     0.000000000         4.368471146         5.542686939
     4.368471146         0.000000000         5.542686939
     4.368471146         4.368471146         5.542686939
     0.000000000         0.000000000         2.232594265
     0.000000000         4.368471146         2.232594265
     4.368471146         0.000000000         2.232594265
     4.368471146         4.368471146         2.232594265
     2.184235573         2.184235573         2.232594265
     2.184235573         6.552706718         2.232594265
     6.552706718         2.184235573         2.232594265
     6.552706718         6.552706718         2.232594265
     2.184235573         2.184235573         8.852779779
     2.184235573         6.552706718         8.852779779
     6.552706718         2.184235573         8.852779779
     6.552706718         6.552706718         8.852779779
     0.000000000         0.000000000         8.852779779
     0.000000000         4.368471146         8.852779779
     4.368471146         0.000000000         8.852779779
     4.368471146         4.368471146         8.852779779
