Al4
1.0
       12.1167898178         0.0000000000         0.0000000000
        0.0000000000        12.1167898178         0.0000000000
        0.0000000000         0.0000000000        12.1167898178
   Al  Cu
   54  54
Cartesian
     0.000000000         0.000000000         0.000000000
     0.000000000         0.000000000         4.038930060
     0.000000000         0.000000000         8.077860119
     0.000000000         4.038930060         0.000000000
     0.000000000         4.038930060         4.038930060
     0.000000000         4.038930060         8.077860119
     0.000000000         8.077860119         0.000000000
     0.000000000         8.077860119         4.038930060
     0.000000000         8.077860119         8.077860119
     4.038930060         0.000000000         0.000000000
     4.038930060         0.000000000         4.038930060
     4.038930060         0.000000000         8.077860119
     4.038930060         4.038930060         0.000000000
     4.038930060         4.038930060         4.038930060
     4.038930060         4.038930060         8.077860119
     4.038930060         8.077860119         0.000000000
     4.038930060         8.077860119         4.038930060
     4.038930060         8.077860119         8.077860119
     8.077860119         0.000000000         0.000000000
     8.077860119         0.000000000         4.038930060
     8.077860119         0.000000000         8.077860119
     8.077860119         4.038930060         0.000000000
     8.077860119         4.038930060         4.038930060
     8.077860119         4.038930060         8.077860119
     8.077860119         8.077860119         0.000000000
     8.077860119         8.077860119         4.038930060
     8.077860119         8.077860119         8.077860119
     0.000000000         2.019465030         2.019465030
     0.000000000         2.019465030         6.058394909
     0.000000000         2.019465030        10.097324607
     0.000000000         6.058394909         2.019465030
     0.000000000         6.058394909         6.058394909
     0.000000000         6.058394909        10.097324607
     0.000000000        10.097324607         2.019465030
     0.000000000        10.097324607         6.058394909
     0.000000000        10.097324607        10.097324607
     4.038930060         2.019465030         2.019465030
     4.038930060         2.019465030         6.058394909
     4.038930060         2.019465030        10.097324607
     4.038930060         6.058394909         2.019465030
     4.038930060         6.058394909         6.058394909
     4.038930060         6.058394909        10.097324607
     4.038930060        10.097324607         2.019465030
     4.038930060        10.097324607         6.058394909
     4.038930060        10.097324607        10.097324607
     8.077860119         2.019465030         2.019465030
     8.077860119         2.019465030         6.058394909
     8.077860119         2.019465030        10.097324607
     8.077860119         6.058394909         2.019465030
     8.077860119         6.058394909         6.058394909
     8.077860119         6.058394909        10.097324607
     8.077860119        10.097324607         2.019465030
     8.077860119        10.097324607         6.058394909
     8.077860119        10.097324607        10.097324607
     2.019465030         0.000000000         2.019465030
     2.019465030         0.000000000         6.058394909
     2.019465030         0.000000000        10.097324607
     2.019465030         4.038930060         2.019465030
     2.019465030         4.038930060         6.058394909
     2.019465030         4.038930060        10.097324607
     2.019465030         8.077860119         2.019465030
     2.019465030         8.077860119         6.058394909
     2.019465030         8.077860119        10.097324607
     6.058394909         0.000000000         2.019465030
     6.058394909         0.000000000         6.058394909
     6.058394909         0.000000000        10.097324607
     6.058394909         4.038930060         2.019465030
     6.058394909         4.038930060         6.058394909
     6.058394909         4.038930060        10.097324607
     6.058394909         8.077860119         2.019465030
     6.058394909         8.077860119         6.058394909
     6.058394909         8.077860119        10.097324607
    10.097324607         0.000000000         2.019465030
    10.097324607         0.000000000         6.058394909
    10.097324607         0.000000000        10.097324607
    10.097324607         4.038930060         2.019465030
    10.097324607         4.038930060         6.058394909
    10.097324607         4.038930060        10.097324607
    10.097324607         8.077860119         2.019465030
    10.097324607         8.077860119         6.058394909
    10.097324607         8.077860119        10.097324607
     2.019465030         2.019465030         0.000000000
     2.019465030         2.019465030         4.038930060
     2.019465030         2.019465030         8.077860119
     2.019465030         6.058394909         0.000000000
     2.019465030         6.058394909         4.038930060
     2.019465030         6.058394909         8.077860119
     2.019465030        10.097324607         0.000000000
     2.019465030        10.097324607         4.038930060
     2.019465030        10.097324607         8.077860119
     6.058394909         2.019465030         0.000000000
     6.058394909         2.019465030         4.038930060
     6.058394909         2.019465030         8.077860119
     6.058394909         6.058394909         0.000000000
     6.058394909         6.058394909         4.038930060
     6.058394909         6.058394909         8.077860119
     6.058394909        10.097324607         0.000000000
     6.058394909        10.097324607         4.038930060
     6.058394909        10.097324607         8.077860119
    10.097324607         2.019465030         0.000000000
    10.097324607         2.019465030         4.038930060
    10.097324607         2.019465030         8.077860119
    10.097324607         6.058394909         0.000000000
    10.097324607         6.058394909         4.038930060
    10.097324607         6.058394909         8.077860119
    10.097324607        10.097324607         0.000000000
    10.097324607        10.097324607         4.038930060
    10.097324607        10.097324607         8.077860119
