Geometry = VaspFormat {
Al4
1.0
12.1167898178         0.0000000000         0.0000000000
0.0000000000        12.1167898178         0.0000000000
0.0000000000         0.0000000000        12.1167898178
Al
108
Cartesian
0.000000000         0.000000000         0.000000000
0.000000000         0.000000000         4.038930060
0.000000000         0.000000000         8.077860119
0.000000000         4.038930060         0.000000000
0.000000000         4.038930060         4.038930060
0.000000000         4.038930060         8.077860119
0.000000000         8.077860119         0.000000000
0.000000000         8.077860119         4.038930060
0.000000000         8.077860119         8.077860119
4.038930060         0.000000000         0.000000000
4.038930060         0.000000000         4.038930060
4.038930060         0.000000000         8.077860119
4.038930060         4.038930060         0.000000000
4.038930060         4.038930060         4.038930060
4.038930060         4.038930060         8.077860119
4.038930060         8.077860119         0.000000000
4.038930060         8.077860119         4.038930060
4.038930060         8.077860119         8.077860119
8.077860119         0.000000000         0.000000000
8.077860119         0.000000000         4.038930060
8.077860119         0.000000000         8.077860119
8.077860119         4.038930060         0.000000000
8.077860119         4.038930060         4.038930060
8.077860119         4.038930060         8.077860119
8.077860119         8.077860119         0.000000000
8.077860119         8.077860119         4.038930060
8.077860119         8.077860119         8.077860119
0.000000000         2.019465030         2.019465030
0.000000000         2.019465030         6.058394909
0.000000000         2.019465030        10.097324607
0.000000000         6.058394909         2.019465030
0.000000000         6.058394909         6.058394909
0.000000000         6.058394909        10.097324607
0.000000000        10.097324607         2.019465030
0.000000000        10.097324607         6.058394909
0.000000000        10.097324607        10.097324607
4.038930060         2.019465030         2.019465030
4.038930060         2.019465030         6.058394909
4.038930060         2.019465030        10.097324607
4.038930060         6.058394909         2.019465030
4.038930060         6.058394909         6.058394909
4.038930060         6.058394909        10.097324607
4.038930060        10.097324607         2.019465030
4.038930060        10.097324607         6.058394909
4.038930060        10.097324607        10.097324607
8.077860119         2.019465030         2.019465030
8.077860119         2.019465030         6.058394909
8.077860119         2.019465030        10.097324607
8.077860119         6.058394909         2.019465030
8.077860119         6.058394909         6.058394909
8.077860119         6.058394909        10.097324607
8.077860119        10.097324607         2.019465030
8.077860119        10.097324607         6.058394909
8.077860119        10.097324607        10.097324607
2.019465030         0.000000000         2.019465030
2.019465030         0.000000000         6.058394909
2.019465030         0.000000000        10.097324607
2.019465030         4.038930060         2.019465030
2.019465030         4.038930060         6.058394909
2.019465030         4.038930060        10.097324607
2.019465030         8.077860119         2.019465030
2.019465030         8.077860119         6.058394909
2.019465030         8.077860119        10.097324607
6.058394909         0.000000000         2.019465030
6.058394909         0.000000000         6.058394909
6.058394909         0.000000000        10.097324607
6.058394909         4.038930060         2.019465030
6.058394909         4.038930060         6.058394909
6.058394909         4.038930060        10.097324607
6.058394909         8.077860119         2.019465030
6.058394909         8.077860119         6.058394909
6.058394909         8.077860119        10.097324607
10.097324607         0.000000000         2.019465030
10.097324607         0.000000000         6.058394909
10.097324607         0.000000000        10.097324607
10.097324607         4.038930060         2.019465030
10.097324607         4.038930060         6.058394909
10.097324607         4.038930060        10.097324607
10.097324607         8.077860119         2.019465030
10.097324607         8.077860119         6.058394909
10.097324607         8.077860119        10.097324607
2.019465030         2.019465030         0.000000000
2.019465030         2.019465030         4.038930060
2.019465030         2.019465030         8.077860119
2.019465030         6.058394909         0.000000000
2.019465030         6.058394909         4.038930060
2.019465030         6.058394909         8.077860119
2.019465030        10.097324607         0.000000000
2.019465030        10.097324607         4.038930060
2.019465030        10.097324607         8.077860119
6.058394909         2.019465030         0.000000000
6.058394909         2.019465030         4.038930060
6.058394909         2.019465030         8.077860119
6.058394909         6.058394909         0.000000000
6.058394909         6.058394909         4.038930060
6.058394909         6.058394909         8.077860119
6.058394909        10.097324607         0.000000000
6.058394909        10.097324607         4.038930060
6.058394909        10.097324607         8.077860119
10.097324607         2.019465030         0.000000000
10.097324607         2.019465030         4.038930060
10.097324607         2.019465030         8.077860119
10.097324607         6.058394909         0.000000000
10.097324607         6.058394909         4.038930060
10.097324607         6.058394909         8.077860119
10.097324607        10.097324607         0.000000000
10.097324607        10.097324607         4.038930060
10.097324607        10.097324607         8.077860119
}
Hamiltonian = xTB {
  Method = "GFN2-xTB"
  SCC = Yes
  SCCTolerance = 1.0e-4
  MaxSCCIterations = 250
  Mixer = Broyden {
    MixingParameter = 0.05
    InverseJacobiWeight = 0.05
    WeightFactor = 0.05
    MinimalWeight = 1.0000000000000000
    MaximalWeight = 100000.00000000000
  }
  Charge = 0.0
  KPointsAndWeights = SuperCellFolding {
1 0 0
0 1 0
0 0 1
0.0 0.0 0.0
  }
  ShellResolvedSCC = No
  SpinPolarisation = {}
  Solver = RelativelyRobust {}
  ReadInitialCharges = No
  InitialCharges = {}
  EwaldParameter = 0.0000000000000000
  EwaldTolerance = 1.0000000000000001E-009
  ConvergentSCCOnly = Yes
  ElectricField = {}
  Dispersion = {}
  Solvation = {}
  Electrostatics = GammaFunctional {}
  Differentiation = FiniteDiff {
    Delta = 1.2207031250000000E-004
  }
  ForceEvaluation = "Traditional"
  Filling = MethfesselPaxton {
    Order = 2
    Temperature [Kelvin] = 300
    IndependentKFilling = No
  }
}
Analysis = {
  ProjectStates = {}
  WriteEigenvectors = No
  WriteBandOut = Yes
  MullikenAnalysis = Yes
  WriteNetCharges = No
  AtomResolvedEnergies = No
  CalculateForces = No
}
Options = {
  WriteDetailedOut = Yes
  WriteAutotestTag = No
  WriteDetailedXML = No
  WriteResultsTag = No
  RestartFrequency = 20
  RandomSeed = 0
  WriteHS = No
  WriteRealHS = No
  MinimiseMemoryUsage = No
  ShowFoldedCoords = No
  TimingVerbosity = 1
  WriteCharges = Yes
  WriteChargesAsText = No
  BinaryAccessTypes = {
"stream"
  }
}
ParserOptions = {
  ParserVersion = 13
  WriteHSDInput = Yes
  StopAfterParsing = No
  IgnoreUnprocessedNodes = No
}
Parallel = {
  UseOmpThreads = Yes
  Groups = 1
  Blacs = BlockSize {
32
  }
}
Reks = None {}
Driver = {}
ExcitedState = {}
