Geometry = VaspFormat {
Li14Zn(GeO4)4
1.0
10.8280000687         0.0000000000         0.0000000000
0.0000000000        12.5019998550         0.0000000000
0.0000000000         0.0000000000        10.2799997330
Li   Ge    O
80   16   64
Cartesian
2.230568017         1.562749982         5.026919793
8.597432375        10.939249873         5.253080246
3.183432018        10.939249873         7.596919420
7.644567728         1.562749982         7.823080179
8.597432375         4.688249946         5.253080246
3.183432018         4.688249946         7.596919420
2.230568017         1.562749982        10.166919354
8.597432375        10.939249873         0.113080073
3.183432018        10.939249873         2.456919860
7.644567728         1.562749982         2.683080006
8.597432375         4.688249946         0.113080073
3.183432018         4.688249946         2.456919860
2.230568017         7.813749909         5.026919793
7.644567728         7.813749909         7.823080179
2.230568017         7.813749909        10.166919354
7.644567728         7.813749909         2.683080006
0.000000000         0.000000000         0.000000000
5.414000034         0.000000000         2.569999933
0.000000000         3.125499964         0.000000000
5.414000034         3.125499964         2.569999933
0.000000000         0.000000000         5.139999866
5.414000034         0.000000000         7.709999800
0.000000000         3.125499964         5.139999866
5.414000034         3.125499964         7.709999800
0.000000000         6.250999928         0.000000000
5.414000034         6.250999928         2.569999933
0.000000000         9.376499891         0.000000000
5.414000034         9.376499891         2.569999933
0.000000000         6.250999928         5.139999866
5.414000034         6.250999928         7.709999800
0.000000000         9.376499891         5.139999866
5.414000034         9.376499891         7.709999800
4.612728019         4.688249946         0.837819991
6.215272050         7.813749909         9.442179818
0.801272015         7.813749909         3.407819848
10.026728053         4.688249946         1.732180019
4.612728019        10.939249873         0.837819991
10.026728053        10.939249873         1.732180019
4.612728019         4.688249946         5.977819781
6.215272050         7.813749909         4.302179952
0.801272015         7.813749909         8.547819714
10.026728053         4.688249946         6.872179885
4.612728019        10.939249873         5.977819781
10.026728053        10.939249873         6.872179885
6.215272050         1.562749982         9.442179818
0.801272015         1.562749982         3.407819848
6.215272050         1.562749982         4.302179952
0.801272015         1.562749982         8.547819714
1.789868376         6.236622477         1.694657921
9.038131531         6.265377378         8.585341812
3.624131497         6.265377378         4.264657854
7.203868572         6.236622477         0.875342013
9.038131531         9.362122441         8.585341812
1.789868376         9.390877341         1.694657921
7.203868572         9.390877341         0.875342013
3.624131497         9.362122441         4.264657854
1.789868376         6.236622477         6.834657787
9.038131531         6.265377378         3.445341946
3.624131497         6.265377378         9.404657720
7.203868572         6.236622477         6.015341879
9.038131531         9.362122441         3.445341946
1.789868376         9.390877341         6.834657787
7.203868572         9.390877341         6.015341879
3.624131497         9.362122441         9.404657720
1.789868376        12.487622405         1.694657921
9.038131531         0.014377450         8.585341812
3.624131497         0.014377450         4.264657854
7.203868572        12.487622405         0.875342013
9.038131531         3.111122514         8.585341812
1.789868376         3.139877414         1.694657921
7.203868572         3.139877414         0.875342013
3.624131497         3.111122514         4.264657854
1.789868376        12.487622405         6.834657787
9.038131531         0.014377450         3.445341946
3.624131497         0.014377450         9.404657720
7.203868572        12.487622405         6.015341879
9.038131531         3.111122514         3.445341946
1.789868376         3.139877414         6.834657787
7.203868572         3.139877414         6.015341879
3.624131497         3.111122514         9.404657720
4.473046874         1.562749982         1.745543938
6.354953195        10.939249873         8.534455948
0.940953161        10.939249873         4.315543718
9.887046908         1.562749982         0.824455995
6.354953195         4.688249946         8.534455948
0.940953161         4.688249946         4.315543718
4.473046874         1.562749982         6.885543652
6.354953195        10.939249873         3.394456081
0.940953161        10.939249873         9.455543585
9.887046908         1.562749982         5.964456015
6.354953195         4.688249946         3.394456081
0.940953161         4.688249946         9.455543585
4.473046874         7.813749909         1.745543938
9.887046908         7.813749909         0.824455995
4.473046874         7.813749909         6.885543652
9.887046908         7.813749909         5.964456015
0.952864001         4.688249946         0.913891975
9.875136068         7.813749909         9.366108065
4.461136033         7.813749909         3.483891908
6.366864035         4.688249946         1.656107958
0.952864001        10.939249873         0.913891975
6.366864035        10.939249873         1.656107958
0.952864001         4.688249946         6.053891535
9.875136068         7.813749909         4.226107892
4.461136033         7.813749909         8.623891468
6.366864035         4.688249946         6.796108131
0.952864001        10.939249873         6.053891535
6.366864035        10.939249873         6.796108131
9.875136068         1.562749982         9.366108065
4.461136033         1.562749982         3.483891908
9.875136068         1.562749982         4.226107892
4.461136033         1.562749982         8.623891468
0.685412390         1.562749982         1.433545950
10.142587518        10.939249873         8.846453630
4.728587483        10.939249873         4.003546036
6.099412585         1.562749982         1.136453983
10.142587518         4.688249946         8.846453630
4.728587483         4.688249946         4.003546036
0.685412390         1.562749982         6.573545969
10.142587518        10.939249873         3.706453764
4.728587483        10.939249873         9.143545903
6.099412585         1.562749982         6.276453697
10.142587518         4.688249946         3.706453764
4.728587483         4.688249946         9.143545903
0.685412390         7.813749909         1.433545950
6.099412585         7.813749909         1.136453983
0.685412390         7.813749909         6.573545969
6.099412585         7.813749909         6.276453697
3.630628407         0.153149494         1.123089987
7.197371984        12.348850279         9.156909669
1.783371627        12.348850279         3.693089997
9.044628119         0.153149494         1.446909869
7.197371984         3.278649539         9.156909669
3.630628407         2.972350388         1.123089987
9.044628119         2.972350388         1.446909869
1.783371627         3.278649539         3.693089997
3.630628407         0.153149494         6.263089930
7.197371984        12.348850279         4.016909803
1.783371627        12.348850279         8.833089864
9.044628119         0.153149494         6.586909736
7.197371984         3.278649539         4.016909803
3.630628407         2.972350388         6.263089930
9.044628119         2.972350388         6.586909736
1.783371627         3.278649539         8.833089864
3.630628407         6.404149503         1.123089987
7.197371984         6.097850352         9.156909669
1.783371627         6.097850352         3.693089997
9.044628119         6.404149503         1.446909869
7.197371984         9.529649467         9.156909669
3.630628407         9.223350316         1.123089987
9.044628119         9.223350316         1.446909869
1.783371627         9.529649467         3.693089997
3.630628407         6.404149503         6.263089930
7.197371984         6.097850352         4.016909803
1.783371627         6.097850352         8.833089864
9.044628119         6.404149503         6.586909736
7.197371984         9.529649467         4.016909803
3.630628407         9.223350316         6.263089930
9.044628119         9.223350316         6.586909736
1.783371627         9.529649467         8.833089864
}
Hamiltonian = xTB {
  Method = "GFN2-xTB"
  SCC = Yes
  SCCTolerance = 1.0e-3
  MaxSCCIterations = 1000
  Mixer = Broyden {
    MixingParameter = 0.2
    InverseJacobiWeight = 0.01
    WeightFactor = 0.01
    MinimalWeight = 1.0000000000000000
    MaximalWeight = 100000.00000000000
  }
  Charge = 0.0
  KPointsAndWeights = SuperCellFolding {
1 0 0
0 1 0
0 0 1
0.0 0.0 0.0
  }
  ShellResolvedSCC = No
  SpinPolarisation = {}
  Solver = RelativelyRobust {}
  ReadInitialCharges = No
  InitialCharges = {}
  EwaldParameter = 0.0000000000000000
  EwaldTolerance = 1.0000000000000001E-009
  ConvergentSCCOnly = Yes
  ElectricField = {}
  Dispersion = {}
  Solvation = {}
  Electrostatics = GammaFunctional {}
  ForceEvaluation = "Traditional"
  Differentiation = FiniteDiff {
    Delta = 1.2207031250000000E-004
  }
  Filling = Fermi {
    Temperature = 9.5004460357391702E-004
    IndependentKFilling = No
  }
}
Analysis = {
  ProjectStates = {}
  WriteEigenvectors = No
  WriteBandOut = Yes
  MullikenAnalysis = Yes
  WriteNetCharges = No
  AtomResolvedEnergies = No
  CalculateForces = No
}
Options = {
  WriteDetailedOut = Yes
  WriteAutotestTag = No
  WriteDetailedXML = No
  WriteResultsTag = No
  RestartFrequency = 20
  RandomSeed = 0
  WriteHS = No
  WriteRealHS = No
  MinimiseMemoryUsage = No
  ShowFoldedCoords = No
  TimingVerbosity = 1
  WriteCharges = Yes
  WriteChargesAsText = No
  BinaryAccessTypes = {
"stream"
  }
}
ParserOptions = {
  ParserVersion = 13
  WriteHSDInput = Yes
  StopAfterParsing = No
  IgnoreUnprocessedNodes = No
}
Parallel = {
  UseOmpThreads = Yes
  Groups = 1
  Blacs = BlockSize {
32
  }
}
Reks = None {}
Driver = {}
ExcitedState = {}
