LiFePO4
1.0
       10.3199996948         0.0000000000         0.0000000000
        0.0000000000        12.0039997101         0.0000000000
        0.0000000000         0.0000000000         9.3769998550
   Li   Fe    P    O
   16   16   16   64
Cartesian
     0.000000000         0.000000000         0.000000000
     5.159999847         0.000000000         2.344249964
     0.000000000         3.000999928         0.000000000
     5.159999847         3.000999928         2.344249964
     0.000000000         0.000000000         4.688499928
     5.159999847         0.000000000         7.032749891
     0.000000000         3.000999928         4.688499928
     5.159999847         3.000999928         7.032749891
     0.000000000         6.001999855         0.000000000
     5.159999847         6.001999855         2.344249964
     0.000000000         9.002999783         0.000000000
     5.159999847         9.002999783         2.344249964
     0.000000000         6.001999855         4.688499928
     5.159999847         6.001999855         7.032749891
     0.000000000         9.002999783         4.688499928
     5.159999847         9.002999783         7.032749891
     2.910239968         1.500499964         4.566598822
     7.409759727        10.503499746         4.810401033
     2.249759879        10.503499746         6.910848786
     8.070239815         1.500499964         7.154650997
     7.409759727         4.501499891         4.810401033
     2.249759879         4.501499891         6.910848786
     2.910239968         1.500499964         9.255098750
     7.409759727        10.503499746         0.121901105
     2.249759879        10.503499746         2.222348858
     8.070239815         1.500499964         2.466151069
     7.409759727         4.501499891         0.121901105
     2.249759879         4.501499891         2.222348858
     2.910239968         7.502499819         4.566598822
     8.070239815         7.502499819         7.154650997
     2.910239968         7.502499819         9.255098750
     8.070239815         7.502499819         2.466151069
     0.970079938         1.500499964         1.955104450
     9.349919911        10.503499746         7.421895126
     4.189920063        10.503499746         4.299354413
     6.130079632         1.500499964         0.389145514
     9.349919911         4.501499891         7.421895126
     4.189920063         4.501499891         4.299354413
     0.970079938         1.500499964         6.643604657
     9.349919911        10.503499746         2.733395478
     4.189920063        10.503499746         8.987854620
     6.130079632         1.500499964         5.077645162
     9.349919911         4.501499891         2.733395478
     4.189920063         4.501499891         8.987854620
     0.970079938         7.502499819         1.955104450
     6.130079632         7.502499819         0.389145514
     0.970079938         7.502499819         6.643604657
     6.130079632         7.502499819         5.077645162
     1.011359944         1.500499964         3.488244029
     9.308639828        10.503499746         5.888756106
     4.148639981        10.503499746         5.832493713
     6.171359714         1.500499964         8.233006069
     9.308639828         4.501499891         5.888756106
     4.148639981         4.501499891         5.832493713
     1.011359944         1.500499964         8.176743677
     9.308639828        10.503499746         1.200255899
     4.148639981        10.503499746         1.143994065
     6.171359714         1.500499964         3.544505862
     9.308639828         4.501499891         1.200255899
     4.148639981         4.501499891         1.143994065
     1.011359944         7.502499819         3.488244029
     6.171359714         7.502499819         8.233006069
     1.011359944         7.502499819         8.176743677
     6.171359714         7.502499819         3.544505862
     4.716239730         1.500499964         0.965830986
     5.603759657        10.503499746         8.411169009
     0.443760117        10.503499746         3.310080810
     9.876239885         1.500499964         1.378418978
     5.603759657         4.501499891         8.411169009
     0.443760117         4.501499891         3.310080810
     4.716239730         1.500499964         5.654330774
     5.603759657        10.503499746         3.722669081
     0.443760117        10.503499746         7.998580738
     9.876239885         1.500499964         6.066919045
     5.603759657         4.501499891         3.722669081
     0.443760117         4.501499891         7.998580738
     4.716239730         7.502499819         0.965830986
     9.876239885         7.502499819         1.378418978
     4.716239730         7.502499819         5.654330774
     9.876239885         7.502499819         6.066919045
     1.713119884         0.282093984         1.336222463
     8.606879657        11.721905414         8.040777532
     3.446879809        11.721905414         3.680472287
     6.873119885         0.282093984         1.008027501
     8.606879657         3.283093866         8.040777532
     1.713119884         2.718905989         1.336222463
     6.873119885         2.718905989         1.008027501
     3.446879809         3.283093866         3.680472287
     1.713119884         0.282093984         6.024722250
     8.606879657        11.721905414         3.352277605
     3.446879809        11.721905414         8.368972214
     6.873119885         0.282093984         5.696527568
     8.606879657         3.283093866         3.352277605
     1.713119884         2.718905989         6.024722250
     6.873119885         2.718905989         5.696527568
     3.446879809         3.283093866         8.368972214
     1.713119884         6.284094152         1.336222463
     8.606879657         5.719905916         8.040777532
     3.446879809         5.719905916         3.680472287
     6.873119885         6.284094152         1.008027501
     8.606879657         9.285094079         8.040777532
     1.713119884         8.720905486         1.336222463
     6.873119885         8.720905486         1.008027501
     3.446879809         9.285094079         3.680472287
     1.713119884         6.284094152         6.024722250
     8.606879657         5.719905916         3.352277605
     3.446879809         5.719905916         8.368972214
     6.873119885         6.284094152         5.696527568
     8.606879657         9.285094079         3.352277605
     1.713119884         8.720905486         6.024722250
     6.873119885         8.720905486         5.696527568
     3.446879809         9.285094079         8.368972214
