Geometry = VaspFormat {
Li2 La4 H2 O6
1.0
10.7450885773         0.0000000000         0.0000000000
0.0000000000        11.3951816559         0.0000000000
0.0000000000         0.0000000000        12.9305763245
Li   La    H    O
18   36   18   54
Cartesian
0.000000000         0.000000000         0.000000000
0.000000000         3.798393998         0.000000000
0.000000000         7.596787997         0.000000000
3.581696299         0.000000000         0.000000000
3.581696299         3.798393998         0.000000000
3.581696299         7.596787997         0.000000000
7.163392598         0.000000000         0.000000000
7.163392598         3.798393998         0.000000000
7.163392598         7.596787997         0.000000000
1.790848150         1.899196999         6.465288162
1.790848150         5.697590828         6.465288162
1.790848150         9.495984487         6.465288162
5.372544289         1.899196999         6.465288162
5.372544289         5.697590828         6.465288162
5.372544289         9.495984487         6.465288162
8.954240268         1.899196999         6.465288162
8.954240268         5.697590828         6.465288162
8.954240268         9.495984487         6.465288162
1.790848150         1.899196999        11.164854369
1.790848150         5.697590828        11.164854369
1.790848150         9.495984487        11.164854369
5.372544289         1.899196999        11.164854369
5.372544289         5.697590828        11.164854369
5.372544289         9.495984487        11.164854369
8.954240268         1.899196999        11.164854369
8.954240268         5.697590828        11.164854369
8.954240268         9.495984487        11.164854369
0.000000000         0.000000000         8.231010117
0.000000000         3.798393998         8.231010117
0.000000000         7.596787997         8.231010117
3.581696299         0.000000000         8.231010117
3.581696299         3.798393998         8.231010117
3.581696299         7.596787997         8.231010117
7.163392598         0.000000000         8.231010117
7.163392598         3.798393998         8.231010117
7.163392598         7.596787997         8.231010117
0.000000000         0.000000000         4.699566207
0.000000000         3.798393998         4.699566207
0.000000000         7.596787997         4.699566207
3.581696299         0.000000000         4.699566207
3.581696299         3.798393998         4.699566207
3.581696299         7.596787997         4.699566207
7.163392598         0.000000000         4.699566207
7.163392598         3.798393998         4.699566207
7.163392598         7.596787997         4.699566207
1.790848150         1.899196999         1.765721955
1.790848150         5.697590828         1.765721955
1.790848150         9.495984487         1.765721955
5.372544289         1.899196999         1.765721955
5.372544289         5.697590828         1.765721955
5.372544289         9.495984487         1.765721955
8.954240268         1.899196999         1.765721955
8.954240268         5.697590828         1.765721955
8.954240268         9.495984487         1.765721955
1.790848150         0.000000000         0.000000000
1.790848150         3.798393998         0.000000000
1.790848150         7.596787997         0.000000000
5.372544289         0.000000000         0.000000000
5.372544289         3.798393998         0.000000000
5.372544289         7.596787997         0.000000000
8.954240268         0.000000000         0.000000000
8.954240268         3.798393998         0.000000000
8.954240268         7.596787997         0.000000000
0.000000000         1.899196999         6.465288162
0.000000000         5.697590828         6.465288162
0.000000000         9.495984487         6.465288162
3.581696299         1.899196999         6.465288162
3.581696299         5.697590828         6.465288162
3.581696299         9.495984487         6.465288162
7.163392598         1.899196999         6.465288162
7.163392598         5.697590828         6.465288162
7.163392598         9.495984487         6.465288162
0.000000000         1.899196999         0.000000000
0.000000000         5.697590828         0.000000000
0.000000000         9.495984487         0.000000000
3.581696299         1.899196999         0.000000000
3.581696299         5.697590828         0.000000000
3.581696299         9.495984487         0.000000000
7.163392598         1.899196999         0.000000000
7.163392598         5.697590828         0.000000000
7.163392598         9.495984487         0.000000000
0.000000000         0.000000000        10.638941914
0.000000000         3.798393998        10.638941914
0.000000000         7.596787997        10.638941914
3.581696299         0.000000000        10.638941914
3.581696299         3.798393998        10.638941914
3.581696299         7.596787997        10.638941914
7.163392598         0.000000000        10.638941914
7.163392598         3.798393998        10.638941914
7.163392598         7.596787997        10.638941914
1.790848150         1.899196999         8.756922572
1.790848150         5.697590828         8.756922572
1.790848150         9.495984487         8.756922572
5.372544289         1.899196999         8.756922572
5.372544289         5.697590828         8.756922572
5.372544289         9.495984487         8.756922572
8.954240268         1.899196999         8.756922572
8.954240268         5.697590828         8.756922572
8.954240268         9.495984487         8.756922572
1.790848150         0.000000000         6.465288162
1.790848150         3.798393998         6.465288162
1.790848150         7.596787997         6.465288162
5.372544289         0.000000000         6.465288162
5.372544289         3.798393998         6.465288162
5.372544289         7.596787997         6.465288162
8.954240268         0.000000000         6.465288162
8.954240268         3.798393998         6.465288162
8.954240268         7.596787997         6.465288162
1.790848150         1.899196999         4.173653752
1.790848150         5.697590828         4.173653752
1.790848150         9.495984487         4.173653752
5.372544289         1.899196999         4.173653752
5.372544289         5.697590828         4.173653752
5.372544289         9.495984487         4.173653752
8.954240268         1.899196999         4.173653752
8.954240268         5.697590828         4.173653752
8.954240268         9.495984487         4.173653752
0.000000000         0.000000000         2.291634410
0.000000000         3.798393998         2.291634410
0.000000000         7.596787997         2.291634410
3.581696299         0.000000000         2.291634410
3.581696299         3.798393998         2.291634410
3.581696299         7.596787997         2.291634410
7.163392598         0.000000000         2.291634410
7.163392598         3.798393998         2.291634410
7.163392598         7.596787997         2.291634410
}
Hamiltonian = xTB {
  Method = "GFN2-xTB"
  SCC = Yes
  SCCTolerance = 1.0e-3
  MaxSCCIterations = 1000
  Mixer = Broyden {
    MixingParameter = 0.05
    InverseJacobiWeight = 0.5
    WeightFactor = 0.5
    MinimalWeight = 1.0000000000000000
    MaximalWeight = 100000.00000000000
  }
  Charge = 0.0
  KPointsAndWeights = SuperCellFolding {
1 0 0
0 1 0
0 0 1
0.0 0.0 0.0
  }
  ShellResolvedSCC = No
  SpinPolarisation = {}
  Solver = RelativelyRobust {}
  ReadInitialCharges = No
  InitialCharges = {}
  EwaldParameter = 0.0000000000000000
  EwaldTolerance = 1.0000000000000001E-009
  ConvergentSCCOnly = Yes
  ElectricField = {}
  Dispersion = {}
  Solvation = {}
  Electrostatics = GammaFunctional {}
  ForceEvaluation = "Traditional"
  Differentiation = FiniteDiff {
    Delta = 1.2207031250000000E-004
  }
  Filling = Fermi {
    Temperature = 9.5004460357391702E-004
    IndependentKFilling = No
  }
}
Analysis = {
  ProjectStates = {}
  WriteEigenvectors = No
  WriteBandOut = Yes
  MullikenAnalysis = Yes
  WriteNetCharges = No
  AtomResolvedEnergies = No
  CalculateForces = No
}
Options = {
  WriteDetailedOut = Yes
  WriteAutotestTag = No
  WriteDetailedXML = No
  WriteResultsTag = No
  RestartFrequency = 20
  RandomSeed = 0
  WriteHS = No
  WriteRealHS = No
  MinimiseMemoryUsage = No
  ShowFoldedCoords = No
  TimingVerbosity = 1
  WriteCharges = Yes
  WriteChargesAsText = No
  BinaryAccessTypes = {
"stream"
  }
}
ParserOptions = {
  ParserVersion = 13
  WriteHSDInput = Yes
  StopAfterParsing = No
  IgnoreUnprocessedNodes = No
}
Parallel = {
  UseOmpThreads = Yes
  Groups = 1
  Blacs = BlockSize {
32
  }
}
Reks = None {}
Driver = {}
ExcitedState = {}
