Li2 La4 H2 O6
1.0
       10.7450885773         0.0000000000         0.0000000000
        0.0000000000        11.3951816559         0.0000000000
        0.0000000000         0.0000000000        12.9305763245
   Li   La    H    O
   18   36   18   54
Cartesian
     0.000000000         0.000000000         0.000000000
     0.000000000         3.798393998         0.000000000
     0.000000000         7.596787997         0.000000000
     3.581696299         0.000000000         0.000000000
     3.581696299         3.798393998         0.000000000
     3.581696299         7.596787997         0.000000000
     7.163392598         0.000000000         0.000000000
     7.163392598         3.798393998         0.000000000
     7.163392598         7.596787997         0.000000000
     1.790848150         1.899196999         6.465288162
     1.790848150         5.697590828         6.465288162
     1.790848150         9.495984487         6.465288162
     5.372544289         1.899196999         6.465288162
     5.372544289         5.697590828         6.465288162
     5.372544289         9.495984487         6.465288162
     8.954240268         1.899196999         6.465288162
     8.954240268         5.697590828         6.465288162
     8.954240268         9.495984487         6.465288162
     1.790848150         1.899196999        11.164854369
     1.790848150         5.697590828        11.164854369
     1.790848150         9.495984487        11.164854369
     5.372544289         1.899196999        11.164854369
     5.372544289         5.697590828        11.164854369
     5.372544289         9.495984487        11.164854369
     8.954240268         1.899196999        11.164854369
     8.954240268         5.697590828        11.164854369
     8.954240268         9.495984487        11.164854369
     0.000000000         0.000000000         8.231010117
     0.000000000         3.798393998         8.231010117
     0.000000000         7.596787997         8.231010117
     3.581696299         0.000000000         8.231010117
     3.581696299         3.798393998         8.231010117
     3.581696299         7.596787997         8.231010117
     7.163392598         0.000000000         8.231010117
     7.163392598         3.798393998         8.231010117
     7.163392598         7.596787997         8.231010117
     0.000000000         0.000000000         4.699566207
     0.000000000         3.798393998         4.699566207
     0.000000000         7.596787997         4.699566207
     3.581696299         0.000000000         4.699566207
     3.581696299         3.798393998         4.699566207
     3.581696299         7.596787997         4.699566207
     7.163392598         0.000000000         4.699566207
     7.163392598         3.798393998         4.699566207
     7.163392598         7.596787997         4.699566207
     1.790848150         1.899196999         1.765721955
     1.790848150         5.697590828         1.765721955
     1.790848150         9.495984487         1.765721955
     5.372544289         1.899196999         1.765721955
     5.372544289         5.697590828         1.765721955
     5.372544289         9.495984487         1.765721955
     8.954240268         1.899196999         1.765721955
     8.954240268         5.697590828         1.765721955
     8.954240268         9.495984487         1.765721955
     1.790848150         0.000000000         0.000000000
     1.790848150         3.798393998         0.000000000
     1.790848150         7.596787997         0.000000000
     5.372544289         0.000000000         0.000000000
     5.372544289         3.798393998         0.000000000
     5.372544289         7.596787997         0.000000000
     8.954240268         0.000000000         0.000000000
     8.954240268         3.798393998         0.000000000
     8.954240268         7.596787997         0.000000000
     0.000000000         1.899196999         6.465288162
     0.000000000         5.697590828         6.465288162
     0.000000000         9.495984487         6.465288162
     3.581696299         1.899196999         6.465288162
     3.581696299         5.697590828         6.465288162
     3.581696299         9.495984487         6.465288162
     7.163392598         1.899196999         6.465288162
     7.163392598         5.697590828         6.465288162
     7.163392598         9.495984487         6.465288162
     0.000000000         1.899196999         0.000000000
     0.000000000         5.697590828         0.000000000
     0.000000000         9.495984487         0.000000000
     3.581696299         1.899196999         0.000000000
     3.581696299         5.697590828         0.000000000
     3.581696299         9.495984487         0.000000000
     7.163392598         1.899196999         0.000000000
     7.163392598         5.697590828         0.000000000
     7.163392598         9.495984487         0.000000000
     0.000000000         0.000000000        10.638941914
     0.000000000         3.798393998        10.638941914
     0.000000000         7.596787997        10.638941914
     3.581696299         0.000000000        10.638941914
     3.581696299         3.798393998        10.638941914
     3.581696299         7.596787997        10.638941914
     7.163392598         0.000000000        10.638941914
     7.163392598         3.798393998        10.638941914
     7.163392598         7.596787997        10.638941914
     1.790848150         1.899196999         8.756922572
     1.790848150         5.697590828         8.756922572
     1.790848150         9.495984487         8.756922572
     5.372544289         1.899196999         8.756922572
     5.372544289         5.697590828         8.756922572
     5.372544289         9.495984487         8.756922572
     8.954240268         1.899196999         8.756922572
     8.954240268         5.697590828         8.756922572
     8.954240268         9.495984487         8.756922572
     1.790848150         0.000000000         6.465288162
     1.790848150         3.798393998         6.465288162
     1.790848150         7.596787997         6.465288162
     5.372544289         0.000000000         6.465288162
     5.372544289         3.798393998         6.465288162
     5.372544289         7.596787997         6.465288162
     8.954240268         0.000000000         6.465288162
     8.954240268         3.798393998         6.465288162
     8.954240268         7.596787997         6.465288162
     1.790848150         1.899196999         4.173653752
     1.790848150         5.697590828         4.173653752
     1.790848150         9.495984487         4.173653752
     5.372544289         1.899196999         4.173653752
     5.372544289         5.697590828         4.173653752
     5.372544289         9.495984487         4.173653752
     8.954240268         1.899196999         4.173653752
     8.954240268         5.697590828         4.173653752
     8.954240268         9.495984487         4.173653752
     0.000000000         0.000000000         2.291634410
     0.000000000         3.798393998         2.291634410
     0.000000000         7.596787997         2.291634410
     3.581696299         0.000000000         2.291634410
     3.581696299         3.798393998         2.291634410
     3.581696299         7.596787997         2.291634410
     7.163392598         0.000000000         2.291634410
     7.163392598         3.798393998         2.291634410
     7.163392598         7.596787997         2.291634410
