Geometry = VaspFormat {
Cs4 H4 S4 O16
1.0
8.5033102036         0.0000000000         0.0000000000
0.0000000000        12.0347137451         0.0000000000
0.0000000000         0.0000000000         9.7675811528
Cs    H    S    O
8    8    8   32
Cartesian
4.061783964         4.558713399         3.405750488
4.061783964        10.576070271         3.405750488
1.581087504         1.550034962         1.478040088
1.581087504         7.567391835         1.478040088
-1.279351231         1.458643384         6.361830664
-1.279351231         7.476000347         6.361830664
1.201345228         4.467321910         8.289541065
1.201345228        10.484678783         8.289541065
6.969660164         0.071347802         2.152179066
6.969660164         6.088704870         2.152179066
-1.326788506         3.080026075         2.731611511
-1.326788506         9.097383306         2.731611511
-4.187227241         5.946009234         7.615402087
-4.187227241        11.963365747         7.615402087
4.109221428         2.937330618         7.035969642
4.109221428         8.954687311         7.035969642
5.837511326         1.582396355         1.020516863
5.837511326         7.599753228         1.020516863
-0.194639858         4.591074791         3.863273714
-0.194639858        10.608431664         3.863273714
-3.055078423         4.434960518         8.747063999
-3.055078423        10.452317390         8.747063999
2.977072420         1.426282081         5.904307730
2.977072420         7.443638954         5.904307730
4.774205766         1.515808346         2.021010209
4.774205766         7.533165398         2.021010209
0.868666041         4.524486603         2.862780222
0.868666041        10.541843116         2.862780222
-1.991772695         4.501548706         7.746570798
-1.991772695        10.518905937         7.746570798
1.913766945         1.492870180         6.904800931
1.913766945         7.510226784         6.904800931
-0.309442033         1.546972165         9.397634049
-0.309442033         7.564328858         9.397634049
0.231436030         4.555650780         5.253737680
0.231436030        10.573008011         5.253737680
3.091874744         4.470384529         0.369947140
3.091874744        10.487741043         0.369947140
2.550996702         1.461706272         4.513843473
2.550996702         7.479063324         4.513843473
6.771765830         2.717727178         1.287513723
6.771765830         8.735084051         1.287513723
-1.128894320         5.726405614         3.596276999
-1.128894320        11.743762487         3.596276999
-3.989332885         3.299629694         8.480067284
-3.989332885         9.316986567         8.480067284
3.911327009         0.290951236         6.171304445
3.911327009         6.308308131         6.171304445
6.716941182         0.253956530         1.170546960
6.716941182         6.271313537         1.170546960
-1.074069757         3.262635101         3.713243689
-1.074069757         9.279991973         3.713243689
-3.934508322         5.763400208         8.597033974
-3.934508322        11.780757081         8.597033974
3.856502319         2.754721951         6.054337755
3.856502319         8.772078645         6.054337755
}
Hamiltonian = xTB {
  Method = "GFN1-xTB"
  SCC = Yes
  SCCTolerance = 1.0e-3
  MaxSCCIterations = 1000
  Mixer = Broyden {
    MixingParameter = 0.20
    InverseJacobiWeight = 0.01
    WeightFactor = 0.01
    MinimalWeight = 1.0000000000000000
    MaximalWeight = 100000.00000000000
  }
  Charge = 0.0
  KPointsAndWeights = SuperCellFolding {
1 0 0
0 1 0
0 0 1
0.0 0.0 0.0
  }
  ShellResolvedSCC = No
  SpinPolarisation = {}
  Solver = RelativelyRobust {}
  ReadInitialCharges = No
  InitialCharges = {}
  EwaldParameter = 0.0000000000000000
  EwaldTolerance = 1.0000000000000001E-009
  ConvergentSCCOnly = Yes
  ElectricField = {}
  Dispersion = {}
  Solvation = {}
  Electrostatics = GammaFunctional {}
  ForceEvaluation = "Traditional"
  Differentiation = FiniteDiff {
    Delta = 1.2207031250000000E-004
  }
  Filling = Fermi {
    Temperature = 9.5004460357391702E-004
    IndependentKFilling = No
  }
}
Analysis = {
  ProjectStates = {}
  WriteEigenvectors = No
  WriteBandOut = Yes
  MullikenAnalysis = Yes
  WriteNetCharges = No
  AtomResolvedEnergies = No
  CalculateForces = No
}
Options = {
  WriteDetailedOut = Yes
  WriteAutotestTag = No
  WriteDetailedXML = No
  WriteResultsTag = No
  RestartFrequency = 20
  RandomSeed = 0
  WriteHS = No
  WriteRealHS = No
  MinimiseMemoryUsage = No
  ShowFoldedCoords = No
  TimingVerbosity = 1
  WriteCharges = Yes
  WriteChargesAsText = No
  BinaryAccessTypes = {
"stream"
  }
}
ParserOptions = {
  ParserVersion = 13
  WriteHSDInput = Yes
  StopAfterParsing = No
  IgnoreUnprocessedNodes = No
}
Parallel = {
  UseOmpThreads = Yes
  Groups = 1
  Blacs = BlockSize {
32
  }
}
Reks = None {}
Driver = {}
ExcitedState = {}
