Ga4 Cu4 Se8
1.0
       11.3355884552         0.0000000000         0.0000000000
        0.0000000000        11.3355884552         0.0000000000
        0.0000000000         0.0000000000        11.2540378571
   Ga   Cu   Se
   16   16   32
Cartesian
     2.833897114         2.833897114         0.000000000
     2.833897114         8.501691341         0.000000000
     8.501691341         2.833897114         0.000000000
     8.501691341         8.501691341         0.000000000
     2.833897114         0.000000000         2.813509464
     2.833897114         5.667794228         2.813509464
     8.501691341         0.000000000         2.813509464
     8.501691341         5.667794228         2.813509464
     0.000000000         0.000000000         5.627018929
     0.000000000         5.667794228         5.627018929
     5.667794228         0.000000000         5.627018929
     5.667794228         5.667794228         5.627018929
     0.000000000         2.833897114         8.440528393
     0.000000000         8.501691341         8.440528393
     5.667794228         2.833897114         8.440528393
     5.667794228         8.501691341         8.440528393
     0.000000000         0.000000000         0.000000000
     0.000000000         5.667794228         0.000000000
     5.667794228         0.000000000         0.000000000
     5.667794228         5.667794228         0.000000000
     0.000000000         2.833897114         2.813509464
     0.000000000         8.501691341         2.813509464
     5.667794228         2.833897114         2.813509464
     5.667794228         8.501691341         2.813509464
     2.833897114         2.833897114         5.627018929
     2.833897114         8.501691341         5.627018929
     8.501691341         2.833897114         5.627018929
     8.501691341         8.501691341         5.627018929
     2.833897114         0.000000000         8.440528393
     2.833897114         5.667794228         8.440528393
     8.501691341         0.000000000         8.440528393
     8.501691341         5.667794228         8.440528393
     1.383616278         1.416948557         1.406754732
     1.383616278         7.084742785         1.406754732
     7.051410759         1.416948557         1.406754732
     7.051410759         7.084742785         1.406754732
     4.250845671         1.450280920         4.220264196
     4.250845671         7.118075485         4.220264196
     9.918639898         1.450280920         4.220264196
     9.918639898         7.118075485         4.220264196
     1.416948557         4.217513308         4.220264196
     1.416948557         9.885307198         4.220264196
     7.084742785         4.217513308         4.220264196
     7.084742785         9.885307198         4.220264196
     4.284178034         4.250845671         1.406754732
     4.284178034         9.918639898         1.406754732
     9.951972599         4.250845671         1.406754732
     9.951972599         9.918639898         1.406754732
     4.217513308         4.250845671         7.033773661
     4.217513308         9.918639898         7.033773661
     9.885307198         4.250845671         7.033773661
     9.885307198         9.918639898         7.033773661
     1.416948557         4.284178034         9.847283125
     1.416948557         9.951972599         9.847283125
     7.084742785         4.284178034         9.847283125
     7.084742785         9.951972599         9.847283125
     4.250845671         1.383616278         9.847283125
     4.250845671         7.051410759         9.847283125
     9.918639898         1.383616278         9.847283125
     9.918639898         7.051410759         9.847283125
     1.450280920         1.416948557         7.033773661
     1.450280920         7.084742785         7.033773661
     7.118075485         1.416948557         7.033773661
     7.118075485         7.084742785         7.033773661
