Fe4 S8
1.0
       16.1904716492         0.0000000000         0.0000000000
        0.0000000000        16.1904716492         0.0000000000
        0.0000000000         0.0000000000        16.1904716492
   Fe    S
  108  216
Cartesian
     0.000000000         2.698412022         2.698412022
     0.000000000         2.698412022         8.095235825
     0.000000000         2.698412022        13.492059386
     0.000000000         8.095235825         2.698412022
     0.000000000         8.095235825         8.095235825
     0.000000000         8.095235825        13.492059386
     0.000000000        13.492059386         2.698412022
     0.000000000        13.492059386         8.095235825
     0.000000000        13.492059386        13.492059386
     5.396824044         2.698412022         2.698412022
     5.396824044         2.698412022         8.095235825
     5.396824044         2.698412022        13.492059386
     5.396824044         8.095235825         2.698412022
     5.396824044         8.095235825         8.095235825
     5.396824044         8.095235825        13.492059386
     5.396824044        13.492059386         2.698412022
     5.396824044        13.492059386         8.095235825
     5.396824044        13.492059386        13.492059386
    10.793648088         2.698412022         2.698412022
    10.793648088         2.698412022         8.095235825
    10.793648088         2.698412022        13.492059386
    10.793648088         8.095235825         2.698412022
    10.793648088         8.095235825         8.095235825
    10.793648088         8.095235825        13.492059386
    10.793648088        13.492059386         2.698412022
    10.793648088        13.492059386         8.095235825
    10.793648088        13.492059386        13.492059386
     2.698412022         2.698412022         0.000000000
     2.698412022         2.698412022         5.396824044
     2.698412022         2.698412022        10.793648088
     2.698412022         8.095235825         0.000000000
     2.698412022         8.095235825         5.396824044
     2.698412022         8.095235825        10.793648088
     2.698412022        13.492059386         0.000000000
     2.698412022        13.492059386         5.396824044
     2.698412022        13.492059386        10.793648088
     8.095235825         2.698412022         0.000000000
     8.095235825         2.698412022         5.396824044
     8.095235825         2.698412022        10.793648088
     8.095235825         8.095235825         0.000000000
     8.095235825         8.095235825         5.396824044
     8.095235825         8.095235825        10.793648088
     8.095235825        13.492059386         0.000000000
     8.095235825        13.492059386         5.396824044
     8.095235825        13.492059386        10.793648088
    13.492059386         2.698412022         0.000000000
    13.492059386         2.698412022         5.396824044
    13.492059386         2.698412022        10.793648088
    13.492059386         8.095235825         0.000000000
    13.492059386         8.095235825         5.396824044
    13.492059386         8.095235825        10.793648088
    13.492059386        13.492059386         0.000000000
    13.492059386        13.492059386         5.396824044
    13.492059386        13.492059386        10.793648088
     0.000000000         0.000000000         0.000000000
     0.000000000         0.000000000         5.396824044
     0.000000000         0.000000000        10.793648088
     0.000000000         5.396824044         0.000000000
     0.000000000         5.396824044         5.396824044
     0.000000000         5.396824044        10.793648088
     0.000000000        10.793648088         0.000000000
     0.000000000        10.793648088         5.396824044
     0.000000000        10.793648088        10.793648088
     5.396824044         0.000000000         0.000000000
     5.396824044         0.000000000         5.396824044
     5.396824044         0.000000000        10.793648088
     5.396824044         5.396824044         0.000000000
     5.396824044         5.396824044         5.396824044
     5.396824044         5.396824044        10.793648088
     5.396824044        10.793648088         0.000000000
     5.396824044        10.793648088         5.396824044
     5.396824044        10.793648088        10.793648088
    10.793648088         0.000000000         0.000000000
    10.793648088         0.000000000         5.396824044
    10.793648088         0.000000000        10.793648088
    10.793648088         5.396824044         0.000000000
    10.793648088         5.396824044         5.396824044
    10.793648088         5.396824044        10.793648088
    10.793648088        10.793648088         0.000000000
    10.793648088        10.793648088         5.396824044
    10.793648088        10.793648088        10.793648088
     2.698412022         0.000000000         2.698412022
     2.698412022         0.000000000         8.095235825
     2.698412022         0.000000000        13.492059386
     2.698412022         5.396824044         2.698412022
     2.698412022         5.396824044         8.095235825
     2.698412022         5.396824044        13.492059386
     2.698412022        10.793648088         2.698412022
     2.698412022        10.793648088         8.095235825
     2.698412022        10.793648088        13.492059386
     8.095235825         0.000000000         2.698412022
     8.095235825         0.000000000         8.095235825
     8.095235825         0.000000000        13.492059386
     8.095235825         5.396824044         2.698412022
     8.095235825         5.396824044         8.095235825
     8.095235825         5.396824044        13.492059386
     8.095235825        10.793648088         2.698412022
     8.095235825        10.793648088         8.095235825
     8.095235825        10.793648088        13.492059386
    13.492059386         0.000000000         2.698412022
    13.492059386         0.000000000         8.095235825
    13.492059386         0.000000000        13.492059386
    13.492059386         5.396824044         2.698412022
    13.492059386         5.396824044         8.095235825
    13.492059386         5.396824044        13.492059386
    13.492059386        10.793648088         2.698412022
    13.492059386        10.793648088         8.095235825
    13.492059386        10.793648088        13.492059386
     2.079828068         0.618584014         4.778240090
     2.079828068         0.618584014        10.175063651
     2.079828068         0.618584014        15.571888178
     2.079828068         6.015407998         4.778240090
     2.079828068         6.015407998        10.175063651
     2.079828068         6.015407998        15.571888178
     2.079828068        11.412231559         4.778240090
     2.079828068        11.412231559        10.175063651
     2.079828068        11.412231559        15.571888178
     7.476651870         0.618584014         4.778240090
     7.476651870         0.618584014        10.175063651
     7.476651870         0.618584014        15.571888178
     7.476651870         6.015407998         4.778240090
     7.476651870         6.015407998        10.175063651
     7.476651870         6.015407998        15.571888178
     7.476651870        11.412231559         4.778240090
     7.476651870        11.412231559        10.175063651
     7.476651870        11.412231559        15.571888178
    12.873475914         0.618584014         4.778240090
    12.873475914         0.618584014        10.175063651
    12.873475914         0.618584014        15.571888178
    12.873475914         6.015407998         4.778240090
    12.873475914         6.015407998        10.175063651
    12.873475914         6.015407998        15.571888178
    12.873475914        11.412231559         4.778240090
    12.873475914        11.412231559        10.175063651
    12.873475914        11.412231559        15.571888178
     3.316995735         4.778240090         0.618583773
     3.316995735         4.778240090         6.015407516
     3.316995735         4.778240090        11.412231559
     3.316995735        10.175063651         0.618583773
     3.316995735        10.175063651         6.015407516
     3.316995735        10.175063651        11.412231559
     3.316995735        15.571888178         0.618583773
     3.316995735        15.571888178         6.015407516
     3.316995735        15.571888178        11.412231559
     8.713819296         4.778240090         0.618583773
     8.713819296         4.778240090         6.015407516
     8.713819296         4.778240090        11.412231559
     8.713819296        10.175063651         0.618583773
     8.713819296        10.175063651         6.015407516
     8.713819296        10.175063651        11.412231559
     8.713819296        15.571888178         0.618583773
     8.713819296        15.571888178         6.015407516
     8.713819296        15.571888178        11.412231559
    14.110643823         4.778240090         0.618583773
    14.110643823         4.778240090         6.015407516
    14.110643823         4.778240090        11.412231559
    14.110643823        10.175063651         0.618583773
    14.110643823        10.175063651         6.015407516
    14.110643823        10.175063651        11.412231559
    14.110643823        15.571888178         0.618583773
    14.110643823        15.571888178         6.015407516
    14.110643823        15.571888178        11.412231559
     0.618584014         4.778240090         2.079828309
     0.618584014         4.778240090         7.476652353
     0.618584014         4.778240090        12.873475914
     0.618584014        10.175063651         2.079828309
     0.618584014        10.175063651         7.476652353
     0.618584014        10.175063651        12.873475914
     0.618584014        15.571888178         2.079828309
     0.618584014        15.571888178         7.476652353
     0.618584014        15.571888178        12.873475914
     6.015407998         4.778240090         2.079828309
     6.015407998         4.778240090         7.476652353
     6.015407998         4.778240090        12.873475914
     6.015407998        10.175063651         2.079828309
     6.015407998        10.175063651         7.476652353
     6.015407998        10.175063651        12.873475914
     6.015407998        15.571888178         2.079828309
     6.015407998        15.571888178         7.476652353
     6.015407998        15.571888178        12.873475914
    11.412231559         4.778240090         2.079828309
    11.412231559         4.778240090         7.476652353
    11.412231559         4.778240090        12.873475914
    11.412231559        10.175063651         2.079828309
    11.412231559        10.175063651         7.476652353
    11.412231559        10.175063651        12.873475914
    11.412231559        15.571888178         2.079828309
    11.412231559        15.571888178         7.476652353
    11.412231559        15.571888178        12.873475914
     4.778240090         0.618584014         3.316995735
     4.778240090         0.618584014         8.713819296
     4.778240090         0.618584014        14.110643823
     4.778240090         6.015407998         3.316995735
     4.778240090         6.015407998         8.713819296
     4.778240090         6.015407998        14.110643823
     4.778240090        11.412231559         3.316995735
     4.778240090        11.412231559         8.713819296
     4.778240090        11.412231559        14.110643823
    10.175063651         0.618584014         3.316995735
    10.175063651         0.618584014         8.713819296
    10.175063651         0.618584014        14.110643823
    10.175063651         6.015407998         3.316995735
    10.175063651         6.015407998         8.713819296
    10.175063651         6.015407998        14.110643823
    10.175063651        11.412231559         3.316995735
    10.175063651        11.412231559         8.713819296
    10.175063651        11.412231559        14.110643823
    15.571888178         0.618584014         3.316995735
    15.571888178         0.618584014         8.713819296
    15.571888178         0.618584014        14.110643823
    15.571888178         6.015407998         3.316995735
    15.571888178         6.015407998         8.713819296
    15.571888178         6.015407998        14.110643823
    15.571888178        11.412231559         3.316995735
    15.571888178        11.412231559         8.713819296
    15.571888178        11.412231559        14.110643823
     3.316995735         3.316995735         3.316995735
     3.316995735         3.316995735         8.713819296
     3.316995735         3.316995735        14.110643823
     3.316995735         8.713819296         3.316995735
     3.316995735         8.713819296         8.713819296
     3.316995735         8.713819296        14.110643823
     3.316995735        14.110643823         3.316995735
     3.316995735        14.110643823         8.713819296
     3.316995735        14.110643823        14.110643823
     8.713819296         3.316995735         3.316995735
     8.713819296         3.316995735         8.713819296
     8.713819296         3.316995735        14.110643823
     8.713819296         8.713819296         3.316995735
     8.713819296         8.713819296         8.713819296
     8.713819296         8.713819296        14.110643823
     8.713819296        14.110643823         3.316995735
     8.713819296        14.110643823         8.713819296
     8.713819296        14.110643823        14.110643823
    14.110643823         3.316995735         3.316995735
    14.110643823         3.316995735         8.713819296
    14.110643823         3.316995735        14.110643823
    14.110643823         8.713819296         3.316995735
    14.110643823         8.713819296         8.713819296
    14.110643823         8.713819296        14.110643823
    14.110643823        14.110643823         3.316995735
    14.110643823        14.110643823         8.713819296
    14.110643823        14.110643823        14.110643823
     2.079828068         2.079828068         2.079828309
     2.079828068         2.079828068         7.476652353
     2.079828068         2.079828068        12.873475914
     2.079828068         7.476651870         2.079828309
     2.079828068         7.476651870         7.476652353
     2.079828068         7.476651870        12.873475914
     2.079828068        12.873475914         2.079828309
     2.079828068        12.873475914         7.476652353
     2.079828068        12.873475914        12.873475914
     7.476651870         2.079828068         2.079828309
     7.476651870         2.079828068         7.476652353
     7.476651870         2.079828068        12.873475914
     7.476651870         7.476651870         2.079828309
     7.476651870         7.476651870         7.476652353
     7.476651870         7.476651870        12.873475914
     7.476651870        12.873475914         2.079828309
     7.476651870        12.873475914         7.476652353
     7.476651870        12.873475914        12.873475914
    12.873475914         2.079828068         2.079828309
    12.873475914         2.079828068         7.476652353
    12.873475914         2.079828068        12.873475914
    12.873475914         7.476651870         2.079828309
    12.873475914         7.476651870         7.476652353
    12.873475914         7.476651870        12.873475914
    12.873475914        12.873475914         2.079828309
    12.873475914        12.873475914         7.476652353
    12.873475914        12.873475914        12.873475914
     4.778240090         2.079828068         0.618583773
     4.778240090         2.079828068         6.015407516
     4.778240090         2.079828068        11.412231559
     4.778240090         7.476651870         0.618583773
     4.778240090         7.476651870         6.015407516
     4.778240090         7.476651870        11.412231559
     4.778240090        12.873475914         0.618583773
     4.778240090        12.873475914         6.015407516
     4.778240090        12.873475914        11.412231559
    10.175063651         2.079828068         0.618583773
    10.175063651         2.079828068         6.015407516
    10.175063651         2.079828068        11.412231559
    10.175063651         7.476651870         0.618583773
    10.175063651         7.476651870         6.015407516
    10.175063651         7.476651870        11.412231559
    10.175063651        12.873475914         0.618583773
    10.175063651        12.873475914         6.015407516
    10.175063651        12.873475914        11.412231559
    15.571888178         2.079828068         0.618583773
    15.571888178         2.079828068         6.015407516
    15.571888178         2.079828068        11.412231559
    15.571888178         7.476651870         0.618583773
    15.571888178         7.476651870         6.015407516
    15.571888178         7.476651870        11.412231559
    15.571888178        12.873475914         0.618583773
    15.571888178        12.873475914         6.015407516
    15.571888178        12.873475914        11.412231559
     0.618584014         3.316995735         4.778240090
     0.618584014         3.316995735        10.175063651
     0.618584014         3.316995735        15.571888178
     0.618584014         8.713819296         4.778240090
     0.618584014         8.713819296        10.175063651
     0.618584014         8.713819296        15.571888178
     0.618584014        14.110643823         4.778240090
     0.618584014        14.110643823        10.175063651
     0.618584014        14.110643823        15.571888178
     6.015407998         3.316995735         4.778240090
     6.015407998         3.316995735        10.175063651
     6.015407998         3.316995735        15.571888178
     6.015407998         8.713819296         4.778240090
     6.015407998         8.713819296        10.175063651
     6.015407998         8.713819296        15.571888178
     6.015407998        14.110643823         4.778240090
     6.015407998        14.110643823        10.175063651
     6.015407998        14.110643823        15.571888178
    11.412231559         3.316995735         4.778240090
    11.412231559         3.316995735        10.175063651
    11.412231559         3.316995735        15.571888178
    11.412231559         8.713819296         4.778240090
    11.412231559         8.713819296        10.175063651
    11.412231559         8.713819296        15.571888178
    11.412231559        14.110643823         4.778240090
    11.412231559        14.110643823        10.175063651
    11.412231559        14.110643823        15.571888178
