Geometry = VaspFormat {
Cu4
1.0
7.2425241470         0.0000000000         0.0000000000
0.0000000000         7.2425241470         0.0000000000
0.0000000000         0.0000000000         7.2425241470
Cu
32
Cartesian
0.000000000         0.000000000         0.000000000
0.000000000         0.000000000         3.621262074
0.000000000         3.621262074         0.000000000
0.000000000         3.621262074         3.621262074
3.621262074         0.000000000         0.000000000
3.621262074         0.000000000         3.621262074
3.621262074         3.621262074         0.000000000
3.621262074         3.621262074         3.621262074
0.000000000         1.810631037         1.810631037
0.000000000         1.810631037         5.431893110
0.000000000         5.431893110         1.810631037
0.000000000         5.431893110         5.431893110
3.621262074         1.810631037         1.810631037
3.621262074         1.810631037         5.431893110
3.621262074         5.431893110         1.810631037
3.621262074         5.431893110         5.431893110
1.810631037         0.000000000         1.810631037
1.810631037         0.000000000         5.431893110
1.810631037         3.621262074         1.810631037
1.810631037         3.621262074         5.431893110
5.431893110         0.000000000         1.810631037
5.431893110         0.000000000         5.431893110
5.431893110         3.621262074         1.810631037
5.431893110         3.621262074         5.431893110
1.810631037         1.810631037         0.000000000
1.810631037         1.810631037         3.621262074
1.810631037         5.431893110         0.000000000
1.810631037         5.431893110         3.621262074
5.431893110         1.810631037         0.000000000
5.431893110         1.810631037         3.621262074
5.431893110         5.431893110         0.000000000
5.431893110         5.431893110         3.621262074
}
Hamiltonian = xTB {
  Method = "GFN2-xTB"
  SCC = Yes
  SCCTolerance = 1.0e-4
  MaxSCCIterations = 250
  Mixer = Broyden {
    MixingParameter = 0.01
    InverseJacobiWeight = 0.01
    WeightFactor = 0.01
    MinimalWeight = 1.0000000000000000
    MaximalWeight = 100000.00000000000
  }
  Charge = 0.0
  KPointsAndWeights = SuperCellFolding {
1 0 0
0 1 0
0 0 1
0.0 0.0 0.0
  }
  Filling = MethfesselPaxton {
    Order = 2
    Temperature [Kelvin] = 300
    IndependentKFilling = No
  }
  ShellResolvedSCC = No
  SpinPolarisation = {}
  Solver = RelativelyRobust {}
  ReadInitialCharges = No
  InitialCharges = {}
  EwaldParameter = 0.0000000000000000
  EwaldTolerance = 1.0000000000000001E-009
  ConvergentSCCOnly = Yes
  ElectricField = {}
  Dispersion = {}
  Solvation = {}
  Electrostatics = GammaFunctional {}
  Differentiation = FiniteDiff {
    Delta = 1.2207031250000000E-004
  }
  ForceEvaluation = "Traditional"
}
Analysis = {
  ProjectStates = {}
  WriteEigenvectors = No
  WriteBandOut = Yes
  MullikenAnalysis = Yes
  WriteNetCharges = No
  AtomResolvedEnergies = No
  CalculateForces = No
}
Options = {
  WriteDetailedOut = Yes
  WriteAutotestTag = No
  WriteDetailedXML = No
  WriteResultsTag = No
  RestartFrequency = 20
  RandomSeed = 0
  WriteHS = No
  WriteRealHS = No
  MinimiseMemoryUsage = No
  ShowFoldedCoords = No
  TimingVerbosity = 1
  WriteCharges = Yes
  WriteChargesAsText = No
  BinaryAccessTypes = {
 "stream"
  }
}
ParserOptions = {
  ParserVersion = 13
  WriteHSDInput = Yes
  StopAfterParsing = No
  IgnoreUnprocessedNodes = No
}
Parallel = {
  UseOmpThreads = Yes
  Groups = 1
  Blacs = BlockSize {
32
  }
}
Reks = None {}
Driver = {}
ExcitedState = {}
