Cu4
1.0
        7.2425241470         0.0000000000         0.0000000000
        0.0000000000         7.2425241470         0.0000000000
        0.0000000000         0.0000000000         7.2425241470
   Cu
   32
Cartesian
     0.000000000         0.000000000         0.000000000
     0.000000000         0.000000000         3.621262074
     0.000000000         3.621262074         0.000000000
     0.000000000         3.621262074         3.621262074
     3.621262074         0.000000000         0.000000000
     3.621262074         0.000000000         3.621262074
     3.621262074         3.621262074         0.000000000
     3.621262074         3.621262074         3.621262074
     0.000000000         1.810631037         1.810631037
     0.000000000         1.810631037         5.431893110
     0.000000000         5.431893110         1.810631037
     0.000000000         5.431893110         5.431893110
     3.621262074         1.810631037         1.810631037
     3.621262074         1.810631037         5.431893110
     3.621262074         5.431893110         1.810631037
     3.621262074         5.431893110         5.431893110
     1.810631037         0.000000000         1.810631037
     1.810631037         0.000000000         5.431893110
     1.810631037         3.621262074         1.810631037
     1.810631037         3.621262074         5.431893110
     5.431893110         0.000000000         1.810631037
     5.431893110         0.000000000         5.431893110
     5.431893110         3.621262074         1.810631037
     5.431893110         3.621262074         5.431893110
     1.810631037         1.810631037         0.000000000
     1.810631037         1.810631037         3.621262074
     1.810631037         5.431893110         0.000000000
     1.810631037         5.431893110         3.621262074
     5.431893110         1.810631037         0.000000000
     5.431893110         1.810631037         3.621262074
     5.431893110         5.431893110         0.000000000
     5.431893110         5.431893110         3.621262074
