Zr4 Ni2 P4
1.0
       15.1062335968         0.0000000000         0.0000000000
        0.0000000000        13.0823822021         0.0000000000
        0.0000000000         0.0000000000        13.1288909912
   Zr   Ni    P
   64   32   64
Cartesian
     1.888279200         1.090198549        11.689859579
     0.000000000         4.360794197        11.689859579
    13.217954397         7.631389358        11.689859579
    11.329675198        10.901984909        11.689859579
     5.664838049         1.090198549        11.689859579
     3.776558849         4.360794197        11.689859579
     1.888279650         7.631389358        11.689859579
     0.000000000        10.901984909        11.689859579
     9.441396898         1.090198549        11.689859579
     7.553116798         4.360794197        11.689859579
     5.664838049         7.631389358        11.689859579
     3.776558849        10.901984909        11.689859579
    13.217954397         1.090198549        11.689859579
    11.329676098         4.360794197        11.689859579
     9.441396898         7.631389358        11.689859579
     7.553117699        10.901984909        11.689859579
     0.000000000         2.180397099         1.439031510
    13.217954397         5.450992454         1.439031510
    11.329675198         8.721588395         1.439031510
     9.441395998        11.992183945         1.439031510
     3.776558399         2.180397099         1.439031510
     1.888279200         5.450992454         1.439031510
     0.000000000         8.721588395         1.439031510
    13.217954397        11.992183945         1.439031510
     7.553116348         2.180397099         1.439031510
     5.664837149         5.450992454         1.439031510
     3.776557949         8.721588395         1.439031510
     1.888278749        11.992183945         1.439031510
    11.329674297         2.180397099         1.439031510
     9.441395998         5.450992454         1.439031510
     7.553116348         8.721588395         1.439031510
     5.664837149        11.992183945         1.439031510
     0.000000000         2.180397099         5.125414083
    13.217954397         5.450992454         5.125414083
    11.329675198         8.721588395         5.125414083
     9.441395998        11.992183945         5.125414083
     3.776558399         2.180397099         5.125414083
     1.888279200         5.450992454         5.125414083
     0.000000000         8.721588395         5.125414083
    13.217954397        11.992183945         5.125414083
     7.553116348         2.180397099         5.125414083
     5.664837149         5.450992454         5.125414083
     3.776557949         8.721588395         5.125414083
     1.888278749        11.992183945         5.125414083
    11.329674297         2.180397099         5.125414083
     9.441395998         5.450992454         5.125414083
     7.553116348         8.721588395         5.125414083
     5.664837149        11.992183945         5.125414083
     1.888279200         1.090198549         8.003476908
     0.000000000         4.360794197         8.003476908
    13.217954397         7.631389358         8.003476908
    11.329675198        10.901984909         8.003476908
     5.664838049         1.090198549         8.003476908
     3.776558849         4.360794197         8.003476908
     1.888279650         7.631389358         8.003476908
     0.000000000        10.901984909         8.003476908
     9.441396898         1.090198549         8.003476908
     7.553116798         4.360794197         8.003476908
     5.664838049         7.631389358         8.003476908
     3.776558849        10.901984909         8.003476908
    13.217954397         1.090198549         8.003476908
    11.329676098         4.360794197         8.003476908
     9.441396898         7.631389358         8.003476908
     7.553117699        10.901984909         8.003476908
     0.000000000         0.000000000         9.846668243
    13.217954397         3.270595551         9.846668243
    11.329675198         6.541191101         9.846668243
     9.441395998         9.811786652         9.846668243
     3.776558399         0.000000000         9.846668243
     1.888279200         3.270595551         9.846668243
     0.000000000         6.541191101         9.846668243
    13.217954397         9.811786652         9.846668243
     7.553116798         0.000000000         9.846668243
     5.664838049         3.270595551         9.846668243
     3.776558399         6.541191101         9.846668243
     1.888279200         9.811786652         9.846668243
    11.329676098         0.000000000         9.846668243
     9.441395998         3.270595551         9.846668243
     7.553116798         6.541191101         9.846668243
     5.664838049         9.811786652         9.846668243
     0.000000000         0.000000000         3.282222748
    13.217954397         3.270595551         3.282222748
    11.329675198         6.541191101         3.282222748
     9.441395998         9.811786652         3.282222748
     3.776558399         0.000000000         3.282222748
     1.888279200         3.270595551         3.282222748
     0.000000000         6.541191101         3.282222748
    13.217954397         9.811786652         3.282222748
     7.553116798         0.000000000         3.282222748
     5.664838049         3.270595551         3.282222748
     3.776558399         6.541191101         3.282222748
     1.888279200         9.811786652         3.282222748
    11.329676098         0.000000000         3.282222748
     9.441395998         3.270595551         3.282222748
     7.553116798         6.541191101         3.282222748
     5.664838049         9.811786652         3.282222748
     0.000000000         0.000000000         0.000000000
    13.217954397         3.270595551         0.000000000
    11.329675198         6.541191101         0.000000000
     9.441395998         9.811786652         0.000000000
     3.776558399         0.000000000         0.000000000
     1.888279200         3.270595551         0.000000000
     0.000000000         6.541191101         0.000000000
    13.217954397         9.811786652         0.000000000
     7.553116798         0.000000000         0.000000000
     5.664838049         3.270595551         0.000000000
     3.776558399         6.541191101         0.000000000
     1.888279200         9.811786652         0.000000000
    11.329676098         0.000000000         0.000000000
     9.441395998         3.270595551         0.000000000
     7.553116798         6.541191101         0.000000000
     5.664838049         9.811786652         0.000000000
     0.000000000         0.000000000         6.564445496
    13.217954397         3.270595551         6.564445496
    11.329675198         6.541191101         6.564445496
     9.441395998         9.811786652         6.564445496
     3.776558399         0.000000000         6.564445496
     1.888279200         3.270595551         6.564445496
     0.000000000         6.541191101         6.564445496
    13.217954397         9.811786652         6.564445496
     7.553116798         0.000000000         6.564445496
     5.664838049         3.270595551         6.564445496
     3.776558399         6.541191101         6.564445496
     1.888279200         9.811786652         6.564445496
    11.329676098         0.000000000         6.564445496
     9.441395998         3.270595551         6.564445496
     7.553116798         6.541191101         6.564445496
     5.664838049         9.811786652         6.564445496
     1.888279200         1.090198549         3.282222748
     0.000000000         4.360794197         3.282222748
    13.217954397         7.631389358         3.282222748
    11.329675198        10.901984909         3.282222748
     5.664838049         1.090198549         3.282222748
     3.776558849         4.360794197         3.282222748
     1.888279650         7.631389358         3.282222748
     0.000000000        10.901984909         3.282222748
     9.441396898         1.090198549         3.282222748
     7.553116798         4.360794197         3.282222748
     5.664838049         7.631389358         3.282222748
     3.776558849        10.901984909         3.282222748
    13.217954397         1.090198549         3.282222748
    11.329676098         4.360794197         3.282222748
     9.441396898         7.631389358         3.282222748
     7.553117699        10.901984909         3.282222748
     0.000000000         2.180397099         9.846668243
    13.217954397         5.450992454         9.846668243
    11.329675198         8.721588395         9.846668243
     9.441395998        11.992183945         9.846668243
     3.776558399         2.180397099         9.846668243
     1.888279200         5.450992454         9.846668243
     0.000000000         8.721588395         9.846668243
    13.217954397        11.992183945         9.846668243
     7.553116348         2.180397099         9.846668243
     5.664837149         5.450992454         9.846668243
     3.776557949         8.721588395         9.846668243
     1.888278749        11.992183945         9.846668243
    11.329674297         2.180397099         9.846668243
     9.441395998         5.450992454         9.846668243
     7.553116348         8.721588395         9.846668243
     5.664837149        11.992183945         9.846668243
