LiCoO2
1.0
        8.4467992783         0.0000000000         0.0000000000
        0.0000000000         7.3151427556         0.0000000000
        0.0000000000         0.0000000000        14.0542001724
   Li   Co    O
   27   54   54
Cartesian
     0.000000000         0.000000000         0.000000000
     1.407799890         0.812793646         4.684733530
     0.000000000         1.625587291         9.369467061
    -1.407799922         2.438380991         0.000000000
    -2.815599843         4.876761982         0.000000000
     2.815599843         4.876761982         0.000000000
     1.407799922         2.438380991         0.000000000
     2.815599843         0.000000000         0.000000000
     5.631199687         0.000000000         0.000000000
     0.000000000         3.251174582         4.684733530
    -1.407799922         5.689555574         4.684733530
     4.223399639         5.689555574         4.684733530
     2.815599969         3.251174582         4.684733530
     4.223399859         0.812793646         4.684733530
     7.038999451         0.812793646         4.684733530
    -1.407799985         4.063968391         9.369467061
    -2.815599780         6.502349165         9.369467061
     2.815599843         6.502349165         9.369467061
     1.407799796         4.063968391         9.369467061
     2.815599780         1.625587291         9.369467061
     5.631199624         1.625587291         9.369467061
     0.000000000         4.876761982         0.000000000
     4.223399765         2.438380991         0.000000000
     1.407800048         5.689555574         4.684733530
     5.631199561         3.251174582         4.684733530
     0.000000000         6.502349165         9.369467061
     4.223399639         4.063968391         9.369467061
     0.000000000         0.000000000         3.513550043
     0.000000000         0.000000000        10.540650129
     1.407799890         0.812793646         8.198283155
     1.407799890         0.812793646         1.171183383
     0.000000000         1.625587291        12.883017104
     0.000000000         1.625587291         5.855916599
    -1.407799922         2.438380991         3.513550043
    -2.815599843         4.876761982        10.540650129
     2.815599843         4.876761982         3.513550043
     1.407799922         2.438380991        10.540650129
     2.815599843         0.000000000         3.513550043
     5.631199687         0.000000000        10.540650129
     2.815599843         0.000000000        10.540650129
     5.631199687         0.000000000         3.513550043
     2.815599843         4.876761982        10.540650129
     1.407799922         2.438380991         3.513550043
    -1.407799922         2.438380991        10.540650129
    -2.815599843         4.876761982         3.513550043
     0.000000000         3.251174582         8.198283155
    -1.407799922         5.689555574         1.171183383
     4.223399639         5.689555574         8.198283155
     2.815599969         3.251174582         1.171183383
     4.223399859         0.812793646         8.198283155
     7.038999451         0.812793646         1.171183383
     4.223399859         0.812793646         1.171183383
     7.038999451         0.812793646         8.198283155
     4.223399639         5.689555574         1.171183383
     2.815599969         3.251174582         8.198283155
     0.000000000         3.251174582         1.171183383
    -1.407799922         5.689555574         8.198283155
    -1.407799985         4.063968391        12.883017104
    -2.815599780         6.502349165         5.855916599
     2.815599843         6.502349165        12.883017104
     1.407799796         4.063968391         5.855916599
     2.815599780         1.625587291        12.883017104
     5.631199624         1.625587291         5.855916599
     2.815599780         1.625587291         5.855916599
     5.631199624         1.625587291        12.883017104
     2.815599843         6.502349165         5.855916599
     1.407799796         4.063968391        12.883017104
    -1.407799985         4.063968391         5.855916599
    -2.815599780         6.502349165        12.883017104
     0.000000000         4.876761982         3.513550043
     4.223399765         2.438380991        10.540650129
     1.407800048         5.689555574         8.198283155
     5.631199561         3.251174582         1.171183383
     0.000000000         6.502349165        12.883017104
     4.223399639         4.063968391         5.855916599
     4.223399765         2.438380991         3.513550043
     0.000000000         4.876761982        10.540650129
     5.631199561         3.251174582         8.198283155
     1.407800048         5.689555574         1.171183383
     4.223399639         4.063968391        12.883017104
     0.000000000         6.502349165         5.855916599
     0.000000000         0.000000000         3.368510797
     0.000000000         0.000000000        10.685689585
     1.407799890         0.812793646         8.053244537
     1.407799890         0.812793646         1.316222629
     0.000000000         1.625587291        12.737977649
     0.000000000         1.625587291         6.000956054
    -1.407799922         2.438380991         3.368510797
    -2.815599843         4.876761982        10.685689585
     2.815599843         4.876761982         3.368510797
     1.407799922         2.438380991        10.685689585
     2.815599843         0.000000000         3.368510797
     5.631199687         0.000000000        10.685689585
     2.815599843         0.000000000        10.685689585
     5.631199687         0.000000000         3.368510797
     2.815599843         4.876761982        10.685689585
     1.407799922         2.438380991         3.368510797
    -1.407799922         2.438380991        10.685689585
    -2.815599843         4.876761982         3.368510797
     0.000000000         3.251174582         8.053244537
    -1.407799922         5.689555574         1.316222629
     4.223399639         5.689555574         8.053244537
     2.815599969         3.251174582         1.316222629
     4.223399859         0.812793646         8.053244537
     7.038999451         0.812793646         1.316222629
     4.223399859         0.812793646         1.316222629
     7.038999451         0.812793646         8.053244537
     4.223399639         5.689555574         1.316222629
     2.815599969         3.251174582         8.053244537
     0.000000000         3.251174582         1.316222629
    -1.407799922         5.689555574         8.053244537
    -1.407799985         4.063968391        12.737977649
    -2.815599780         6.502349165         6.000956054
     2.815599843         6.502349165        12.737977649
     1.407799796         4.063968391         6.000956054
     2.815599780         1.625587291        12.737977649
     5.631199624         1.625587291         6.000956054
     2.815599780         1.625587291         6.000956054
     5.631199624         1.625587291        12.737977649
     2.815599843         6.502349165         6.000956054
     1.407799796         4.063968391        12.737977649
    -1.407799985         4.063968391         6.000956054
    -2.815599780         6.502349165        12.737977649
     0.000000000         4.876761982         3.368510797
     4.223399765         2.438380991        10.685689585
     1.407800048         5.689555574         8.053244537
     5.631199561         3.251174582         1.316222629
     0.000000000         6.502349165        12.737977649
     4.223399639         4.063968391         6.000956054
     4.223399765         2.438380991         3.368510797
     0.000000000         4.876761982        10.685689585
     5.631199561         3.251174582         8.053244537
     1.407800048         5.689555574         1.316222629
     4.223399639         4.063968391        12.737977649
     0.000000000         6.502349165         6.000956054
