New structure
1.0
       12.8000001907         0.0000000000         0.0000000000
        0.0000000000        12.8000001907         0.0000000000
        0.0000000000         0.0000000000        12.8000001907
   Xx
    1
Cartesian
     6.400000095         6.400000095         6.400000095
