Ta10 Co10 B10
1.0
        9.8504667282         0.0000000000         0.0000000000
        0.0000000000        11.7812938690         0.0000000000
        0.0000000000         0.0000000000        16.9771614075
   Ta   Co    B
   60   60   60
Cartesian
     0.000000000         3.112552908         5.444235992
     0.000000000         9.003199842         5.444235992
     3.283489007         3.112552908         5.444235992
     3.283489007         9.003199842         5.444235992
     6.566978015         3.112552908         5.444235992
     6.566978015         9.003199842         5.444235992
     0.000000000         3.112552908        11.532924910
     0.000000000         9.003199842        11.532924910
     3.283489007         3.112552908        11.532924910
     3.283489007         9.003199842        11.532924910
     6.566978015         3.112552908        11.532924910
     6.566978015         9.003199842        11.532924910
     1.641744504         2.778093851         3.044344459
     1.641744504         8.668740961         3.044344459
     4.925233364         2.778093851         3.044344459
     4.925233364         8.668740961         3.044344459
     8.208722078         2.778093851         3.044344459
     8.208722078         8.668740961         3.044344459
     1.641744504         2.778093851        13.932817201
     1.641744504         8.668740961        13.932817201
     4.925233364         2.778093851        13.932817201
     4.925233364         8.668740961        13.932817201
     8.208722078         2.778093851        13.932817201
     8.208722078         8.668740961        13.932817201
     0.000000000         0.129117095         6.367199526
     0.000000000         6.019764096         6.367199526
     3.283489007         0.129117095         6.367199526
     3.283489007         6.019764096         6.367199526
     6.566978015         0.129117095         6.367199526
     6.566978015         6.019764096         6.367199526
     0.000000000         0.129117095        10.609961882
     0.000000000         6.019764096        10.609961882
     3.283489007         0.129117095        10.609961882
     3.283489007         6.019764096        10.609961882
     6.566978015         0.129117095        10.609961882
     6.566978015         6.019764096        10.609961882
     1.641744504         5.761529773         2.121381178
     1.641744504        11.652176708         2.121381178
     4.925233364         5.761529773         2.121381178
     4.925233364        11.652176708         2.121381178
     8.208722078         5.761529773         2.121381178
     8.208722078        11.652176708         2.121381178
     1.641744504         5.761529773        14.855780229
     1.641744504        11.652176708        14.855780229
     4.925233364         5.761529773        14.855780229
     4.925233364        11.652176708        14.855780229
     8.208722078         5.761529773        14.855780229
     8.208722078        11.652176708        14.855780229
     0.000000000         3.791579827         8.488580704
     0.000000000         9.682226762         8.488580704
     3.283489007         3.791579827         8.488580704
     3.283489007         9.682226762         8.488580704
     6.566978015         3.791579827         8.488580704
     6.566978015         9.682226762         8.488580704
     1.641744504         2.099067283         0.000000000
     1.641744504         7.989714042         0.000000000
     4.925233364         2.099067283         0.000000000
     4.925233364         7.989714042         0.000000000
     8.208722078         2.099067283         0.000000000
     8.208722078         7.989714042         0.000000000
     0.000000000         0.851322174         3.840318902
     0.000000000         6.741969108         3.840318902
     3.283489007         0.851322174         3.840318902
     3.283489007         6.741969108         3.840318902
     6.566978015         0.851322174         3.840318902
     6.566978015         6.741969108         3.840318902
     0.000000000         0.851322174        13.136842758
     0.000000000         6.741969108        13.136842758
     3.283489007         0.851322174        13.136842758
     3.283489007         6.741969108        13.136842758
     6.566978015         0.851322174        13.136842758
     6.566978015         6.741969108        13.136842758
     1.641744504         5.039324761         4.648262055
     1.641744504        10.929971695         4.648262055
     4.925233364         5.039324761         4.648262055
     4.925233364        10.929971695         4.648262055
     8.208722078         5.039324761         4.648262055
     8.208722078        10.929971695         4.648262055
     1.641744504         5.039324761        12.328899353
     1.641744504        10.929971695        12.328899353
     4.925233364         5.039324761        12.328899353
     4.925233364        10.929971695        12.328899353
     8.208722078         5.039324761        12.328899353
     8.208722078        10.929971695        12.328899353
     0.000000000         3.829491974         1.207670366
     0.000000000         9.720138908         1.207670366
     3.283489007         3.829491974         1.207670366
     3.283489007         9.720138908         1.207670366
     6.566978015         3.829491974         1.207670366
     6.566978015         9.720138908         1.207670366
     0.000000000         3.829491974        15.769491294
     0.000000000         9.720138908        15.769491294
     3.283489007         3.829491974        15.769491294
     3.283489007         9.720138908        15.769491294
     6.566978015         3.829491974        15.769491294
     6.566978015         9.720138908        15.769491294
     1.641744504         2.061154961         7.280910084
     1.641744504         7.951801895         7.280910084
     4.925233364         2.061154961         7.280910084
     4.925233364         7.951801895         7.280910084
     8.208722078         2.061154961         7.280910084
     8.208722078         7.951801895         7.280910084
     1.641744504         2.061154961         9.696250817
     1.641744504         7.951801895         9.696250817
     4.925233364         2.061154961         9.696250817
     4.925233364         7.951801895         9.696250817
     8.208722078         2.061154961         9.696250817
     8.208722078         7.951801895         9.696250817
     0.000000000         0.035231960         0.000000000
     0.000000000         5.925878708         0.000000000
     3.283489007         0.035231960         0.000000000
     3.283489007         5.925878708         0.000000000
     6.566978015         0.035231960         0.000000000
     6.566978015         5.925878708         0.000000000
     1.641744504         5.855414810         8.488580704
     1.641744504        11.746062095         8.488580704
     4.925233364         5.855414810         8.488580704
     4.925233364        11.746062095         8.488580704
     8.208722078         5.855414810         8.488580704
     8.208722078        11.746062095         8.488580704
     0.000000000         4.521972723         3.419522803
     0.000000000        10.412619658         3.419522803
     3.283489007         4.521972723         3.419522803
     3.283489007        10.412619658         3.419522803
     6.566978015         4.521972723         3.419522803
     6.566978015        10.412619658         3.419522803
     0.000000000         4.521972723        13.557638604
     0.000000000        10.412619658        13.557638604
     3.283489007         4.521972723        13.557638604
     3.283489007        10.412619658        13.557638604
     6.566978015         4.521972723        13.557638604
     6.566978015        10.412619658        13.557638604
     1.641744504         1.368674124         5.069057901
     1.641744504         7.259321146         5.069057901
     4.925233364         1.368674124         5.069057901
     4.925233364         7.259321146         5.069057901
     8.208722078         1.368674124         5.069057901
     8.208722078         7.259321146         5.069057901
     1.641744504         1.368674124        11.908103507
     1.641744504         7.259321146        11.908103507
     4.925233364         1.368674124        11.908103507
     4.925233364         7.259321146        11.908103507
     8.208722078         1.368674124        11.908103507
     8.208722078         7.259321146        11.908103507
     0.000000000         1.596011914         1.703165849
     0.000000000         7.486659200         1.703165849
     3.283489007         1.596011914         1.703165849
     3.283489007         7.486659200         1.703165849
     6.566978015         1.596011914         1.703165849
     6.566978015         7.486659200         1.703165849
     0.000000000         1.596011914        15.273995685
     0.000000000         7.486659200        15.273995685
     3.283489007         1.596011914        15.273995685
     3.283489007         7.486659200        15.273995685
     6.566978015         1.596011914        15.273995685
     6.566978015         7.486659200        15.273995685
     1.641744504         4.294635020         6.785414982
     1.641744504        10.185281603         6.785414982
     4.925233364         4.294635020         6.785414982
     4.925233364        10.185281603         6.785414982
     8.208722078         4.294635020         6.785414982
     8.208722078        10.185281603         6.785414982
     1.641744504         4.294635020        10.191746426
     1.641744504        10.185281603        10.191746426
     4.925233364         4.294635020        10.191746426
     4.925233364        10.185281603        10.191746426
     8.208722078         4.294635020        10.191746426
     8.208722078        10.185281603        10.191746426
     0.000000000         1.361687826         8.488580704
     0.000000000         7.252334761         8.488580704
     3.283489007         1.361687826         8.488580704
     3.283489007         7.252334761         8.488580704
     6.566978015         1.361687826         8.488580704
     6.566978015         7.252334761         8.488580704
     1.641744504         4.528959108         0.000000000
     1.641744504        10.419606043         0.000000000
     4.925233364         4.528959108         0.000000000
     4.925233364        10.419606043         0.000000000
     8.208722078         4.528959108         0.000000000
     8.208722078        10.419606043         0.000000000
