Geometry = VaspFormat {
Cu4
1.0
10.8637857437         0.0000000000         0.0000000000
0.0000000000        10.8637857437         0.0000000000
0.0000000000         0.0000000000        10.8637857437
Cu
108
Cartesian
0.000000000         0.000000000         0.000000000
0.000000000         0.000000000         3.621262022
0.000000000         0.000000000         7.242524045
0.000000000         3.621262022         0.000000000
0.000000000         3.621262022         3.621262022
0.000000000         3.621262022         7.242524045
0.000000000         7.242524045         0.000000000
0.000000000         7.242524045         3.621262022
0.000000000         7.242524045         7.242524045
3.621262022         0.000000000         0.000000000
3.621262022         0.000000000         3.621262022
3.621262022         0.000000000         7.242524045
3.621262022         3.621262022         0.000000000
3.621262022         3.621262022         3.621262022
3.621262022         3.621262022         7.242524045
3.621262022         7.242524045         0.000000000
3.621262022         7.242524045         3.621262022
3.621262022         7.242524045         7.242524045
7.242524045         0.000000000         0.000000000
7.242524045         0.000000000         3.621262022
7.242524045         0.000000000         7.242524045
7.242524045         3.621262022         0.000000000
7.242524045         3.621262022         3.621262022
7.242524045         3.621262022         7.242524045
7.242524045         7.242524045         0.000000000
7.242524045         7.242524045         3.621262022
7.242524045         7.242524045         7.242524045
0.000000000         1.810631011         1.810631011
0.000000000         1.810631011         5.431892872
0.000000000         1.810631011         9.053154571
0.000000000         5.431892872         1.810631011
0.000000000         5.431892872         5.431892872
0.000000000         5.431892872         9.053154571
0.000000000         9.053154571         1.810631011
0.000000000         9.053154571         5.431892872
0.000000000         9.053154571         9.053154571
3.621262022         1.810631011         1.810631011
3.621262022         1.810631011         5.431892872
3.621262022         1.810631011         9.053154571
3.621262022         5.431892872         1.810631011
3.621262022         5.431892872         5.431892872
3.621262022         5.431892872         9.053154571
3.621262022         9.053154571         1.810631011
3.621262022         9.053154571         5.431892872
3.621262022         9.053154571         9.053154571
7.242524045         1.810631011         1.810631011
7.242524045         1.810631011         5.431892872
7.242524045         1.810631011         9.053154571
7.242524045         5.431892872         1.810631011
7.242524045         5.431892872         5.431892872
7.242524045         5.431892872         9.053154571
7.242524045         9.053154571         1.810631011
7.242524045         9.053154571         5.431892872
7.242524045         9.053154571         9.053154571
1.810631011         0.000000000         1.810631011
1.810631011         0.000000000         5.431892872
1.810631011         0.000000000         9.053154571
1.810631011         3.621262022         1.810631011
1.810631011         3.621262022         5.431892872
1.810631011         3.621262022         9.053154571
1.810631011         7.242524045         1.810631011
1.810631011         7.242524045         5.431892872
1.810631011         7.242524045         9.053154571
5.431892872         0.000000000         1.810631011
5.431892872         0.000000000         5.431892872
5.431892872         0.000000000         9.053154571
5.431892872         3.621262022         1.810631011
5.431892872         3.621262022         5.431892872
5.431892872         3.621262022         9.053154571
5.431892872         7.242524045         1.810631011
5.431892872         7.242524045         5.431892872
5.431892872         7.242524045         9.053154571
9.053154571         0.000000000         1.810631011
9.053154571         0.000000000         5.431892872
9.053154571         0.000000000         9.053154571
9.053154571         3.621262022         1.810631011
9.053154571         3.621262022         5.431892872
9.053154571         3.621262022         9.053154571
9.053154571         7.242524045         1.810631011
9.053154571         7.242524045         5.431892872
9.053154571         7.242524045         9.053154571
1.810631011         1.810631011         0.000000000
1.810631011         1.810631011         3.621262022
1.810631011         1.810631011         7.242524045
1.810631011         5.431892872         0.000000000
1.810631011         5.431892872         3.621262022
1.810631011         5.431892872         7.242524045
1.810631011         9.053154571         0.000000000
1.810631011         9.053154571         3.621262022
1.810631011         9.053154571         7.242524045
5.431892872         1.810631011         0.000000000
5.431892872         1.810631011         3.621262022
5.431892872         1.810631011         7.242524045
5.431892872         5.431892872         0.000000000
5.431892872         5.431892872         3.621262022
5.431892872         5.431892872         7.242524045
5.431892872         9.053154571         0.000000000
5.431892872         9.053154571         3.621262022
5.431892872         9.053154571         7.242524045
9.053154571         1.810631011         0.000000000
9.053154571         1.810631011         3.621262022
9.053154571         1.810631011         7.242524045
9.053154571         5.431892872         0.000000000
9.053154571         5.431892872         3.621262022
9.053154571         5.431892872         7.242524045
9.053154571         9.053154571         0.000000000
9.053154571         9.053154571         3.621262022
9.053154571         9.053154571         7.242524045
}
Hamiltonian = xTB {
  Method = "GFN2-xTB"
  SCC = Yes
  SCCTolerance = 1.0e-4
  MaxSCCIterations = 250
  Mixer = Broyden {
    MixingParameter = 0.2
    InverseJacobiWeight = 0.5
    WeightFactor = 0.5
    MinimalWeight = 1.0000000000000000
    MaximalWeight = 100000.00000000000
  }
  Charge = 0.0
  KPointsAndWeights = SuperCellFolding {
1 0 0
0 1 0
0 0 1
0.0 0.0 0.0
  }
  ShellResolvedSCC = No
  SpinPolarisation = {}
  Solver = RelativelyRobust {}
  ReadInitialCharges = No
  InitialCharges = {}
  EwaldParameter = 0.0000000000000000
  EwaldTolerance = 1.0000000000000001E-009
  ConvergentSCCOnly = Yes
  ElectricField = {}
  Dispersion = {}
  Solvation = {}
  Electrostatics = GammaFunctional {}
  Differentiation = FiniteDiff {
    Delta = 1.2207031250000000E-004
  }
  ForceEvaluation = "Traditional"
  Filling = MethfesselPaxton {
    Order = 2
    Temperature [Kelvin] = 300
    IndependentKFilling = No
  }
}
Analysis = {
  ProjectStates = {}
  WriteEigenvectors = No
  WriteBandOut = Yes
  MullikenAnalysis = Yes
  WriteNetCharges = No
  AtomResolvedEnergies = No
  CalculateForces = No
}
Options = {
  WriteDetailedOut = Yes
  WriteAutotestTag = No
  WriteDetailedXML = No
  WriteResultsTag = No
  RestartFrequency = 20
  RandomSeed = 0
  WriteHS = No
  WriteRealHS = No
  MinimiseMemoryUsage = No
  ShowFoldedCoords = No
  TimingVerbosity = 1
  WriteCharges = Yes
  WriteChargesAsText = No
  BinaryAccessTypes = {
"stream"
  }
}
ParserOptions = {
  ParserVersion = 13
  WriteHSDInput = Yes
  StopAfterParsing = No
  IgnoreUnprocessedNodes = No
}
Parallel = {
  UseOmpThreads = Yes
  Groups = 1
  Blacs = BlockSize {
32
  }
}
Reks = None {}
Driver = {}
ExcitedState = {}
