Zr4 Ni4 Sn4
1.0
       12.3252801895         0.0000000000         0.0000000000
        0.0000000000        12.3252801895         0.0000000000
        0.0000000000         0.0000000000        12.3252801895
   Zr   Ni   Sn
   32   32   32
Cartesian
     0.000000000         0.000000000         0.000000000
     0.000000000         0.000000000         6.162640095
     0.000000000         6.162640095         0.000000000
     0.000000000         6.162640095         6.162640095
     6.162640095         0.000000000         0.000000000
     6.162640095         0.000000000         6.162640095
     6.162640095         6.162640095         0.000000000
     6.162640095         6.162640095         6.162640095
     0.000000000         3.081320047         3.081320047
     0.000000000         3.081320047         9.243960142
     0.000000000         9.243960142         3.081320047
     0.000000000         9.243960142         9.243960142
     6.162640095         3.081320047         3.081320047
     6.162640095         3.081320047         9.243960142
     6.162640095         9.243960142         3.081320047
     6.162640095         9.243960142         9.243960142
     3.081320047         0.000000000         3.081320047
     3.081320047         0.000000000         9.243960142
     3.081320047         6.162640095         3.081320047
     3.081320047         6.162640095         9.243960142
     9.243960142         0.000000000         3.081320047
     9.243960142         0.000000000         9.243960142
     9.243960142         6.162640095         3.081320047
     9.243960142         6.162640095         9.243960142
     3.081320047         3.081320047         0.000000000
     3.081320047         3.081320047         6.162640095
     3.081320047         9.243960142         0.000000000
     3.081320047         9.243960142         6.162640095
     9.243960142         3.081320047         0.000000000
     9.243960142         3.081320047         6.162640095
     9.243960142         9.243960142         0.000000000
     9.243960142         9.243960142         6.162640095
     1.540660024         1.540660024         4.621980071
     1.540660024         1.540660024        10.784620166
     1.540660024         7.703300118         4.621980071
     1.540660024         7.703300118        10.784620166
     7.703300118         1.540660024         4.621980071
     7.703300118         1.540660024        10.784620166
     7.703300118         7.703300118         4.621980071
     7.703300118         7.703300118        10.784620166
     1.540660024         4.621980071         1.540660024
     1.540660024         4.621980071         7.703300118
     1.540660024        10.784620166         1.540660024
     1.540660024        10.784620166         7.703300118
     7.703300118         4.621980071         1.540660024
     7.703300118         4.621980071         7.703300118
     7.703300118        10.784620166         1.540660024
     7.703300118        10.784620166         7.703300118
     4.621980071         1.540660024         1.540660024
     4.621980071         1.540660024         7.703300118
     4.621980071         7.703300118         1.540660024
     4.621980071         7.703300118         7.703300118
    10.784620166         1.540660024         1.540660024
    10.784620166         1.540660024         7.703300118
    10.784620166         7.703300118         1.540660024
    10.784620166         7.703300118         7.703300118
     4.621980071         4.621980071         4.621980071
     4.621980071         4.621980071        10.784620166
     4.621980071        10.784620166         4.621980071
     4.621980071        10.784620166        10.784620166
    10.784620166         4.621980071         4.621980071
    10.784620166         4.621980071        10.784620166
    10.784620166        10.784620166         4.621980071
    10.784620166        10.784620166        10.784620166
     3.081320047         0.000000000         0.000000000
     3.081320047         0.000000000         6.162640095
     3.081320047         6.162640095         0.000000000
     3.081320047         6.162640095         6.162640095
     9.243960142         0.000000000         0.000000000
     9.243960142         0.000000000         6.162640095
     9.243960142         6.162640095         0.000000000
     9.243960142         6.162640095         6.162640095
     3.081320047         3.081320047         3.081320047
     3.081320047         3.081320047         9.243960142
     3.081320047         9.243960142         3.081320047
     3.081320047         9.243960142         9.243960142
     9.243960142         3.081320047         3.081320047
     9.243960142         3.081320047         9.243960142
     9.243960142         9.243960142         3.081320047
     9.243960142         9.243960142         9.243960142
     0.000000000         0.000000000         3.081320047
     0.000000000         0.000000000         9.243960142
     0.000000000         6.162640095         3.081320047
     0.000000000         6.162640095         9.243960142
     6.162640095         0.000000000         3.081320047
     6.162640095         0.000000000         9.243960142
     6.162640095         6.162640095         3.081320047
     6.162640095         6.162640095         9.243960142
     0.000000000         3.081320047         0.000000000
     0.000000000         3.081320047         6.162640095
     0.000000000         9.243960142         0.000000000
     0.000000000         9.243960142         6.162640095
     6.162640095         3.081320047         0.000000000
     6.162640095         3.081320047         6.162640095
     6.162640095         9.243960142         0.000000000
     6.162640095         9.243960142         6.162640095
