Geometry = VaspFormat {
Ca8 Mg8 Zn8
1.0
11.8999357224         0.0000000000         0.0000000000
0.0000000000        10.0678281784         0.0000000000
0.0000000000         0.0000000000         9.6668510437
Ca   Mg   Zn
16   16   16
Cartesian
2.974983931         8.392521612         7.751587120
8.924951792         8.392521612         7.751587120
2.974983931         1.690499028         6.551137785
8.924951792         1.690499028         6.551137785
2.974983931         1.690499028         3.115712971
8.924951792         1.690499028         3.115712971
2.974983931         8.392521612         1.915264211
8.924951792         8.392521612         1.915264211
0.000000000         3.358607223         7.751587120
5.949967861         3.358607223         7.751587120
0.000000000         6.724413117         6.551137785
5.949967861         6.724413117         6.551137785
0.000000000         6.724413117         3.115712971
5.949967861         6.724413117         3.115712971
0.000000000         3.358607223         1.915264211
5.949967861         3.358607223         1.915264211
2.974983931         4.998334493         7.112337444
8.924951792         4.998334493         7.112337444
2.974983931         4.998334493         2.554513599
8.924951792         4.998334493         2.554513599
4.441115584         0.873545151         0.000000000
10.391083445         0.873545151         0.000000000
1.508852277         0.873545151         0.000000000
7.458820138         0.873545151         0.000000000
0.000000000        10.032248282         7.112337444
5.949967861        10.032248282         7.112337444
0.000000000        10.032248282         2.554513599
5.949967861        10.032248282         2.554513599
1.466131565         5.907459315         0.000000000
7.416099515         5.907459315         0.000000000
4.483836208         5.907459315         0.000000000
10.433804069         5.907459315         0.000000000
2.974983931         3.316020384         0.000000000
8.924951792         3.316020384         0.000000000
1.588465808         9.182538605         4.833425522
7.538433847         9.182538605         4.833425522
4.361501876         9.182538605         4.833425522
10.311469737         9.182538605         4.833425522
2.974983931         6.818466917         4.833425522
8.924951792         6.818466917         4.833425522
0.000000000         8.349934473         0.000000000
5.949967861         8.349934473         0.000000000
4.563449916         4.148624815         4.833425522
10.513417777         4.148624815         4.833425522
1.386518034         4.148624815         4.833425522
7.336485806         4.148624815         4.833425522
0.000000000         1.784552678         4.833425522
5.949967861         1.784552678         4.833425522
}
Hamiltonian = xTB {
  Method = "GFN1-xTB"
  SCC = Yes
  SCCTolerance = 1.0e-3
  MaxSCCIterations = 1000
  Mixer = Broyden {
    MixingParameter = 0.10
    InverseJacobiWeight = 0.5
    WeightFactor = 0.5
    MinimalWeight = 1.0000000000000000
    MaximalWeight = 100000.00000000000
  }
  Charge = 0.0
  KPointsAndWeights = SuperCellFolding {
1 0 0
0 1 0
0 0 1
0.0 0.0 0.0
  }
  ShellResolvedSCC = No
  SpinPolarisation = {}
  Solver = RelativelyRobust {}
  ReadInitialCharges = No
  InitialCharges = {}
  EwaldParameter = 0.0000000000000000
  EwaldTolerance = 1.0000000000000001E-009
  ConvergentSCCOnly = Yes
  ElectricField = {}
  Dispersion = {}
  Solvation = {}
  Electrostatics = GammaFunctional {}
  Differentiation = FiniteDiff {
    Delta = 1.2207031250000000E-004
  }
  ForceEvaluation = "Traditional"
  Filling = MethfesselPaxton {
    Order = 2
    Temperature [Kelvin] = 300
    IndependentKFilling = No
  }
}
Analysis = {
  ProjectStates = {}
  WriteEigenvectors = No
  WriteBandOut = Yes
  MullikenAnalysis = Yes
  WriteNetCharges = No
  AtomResolvedEnergies = No
  CalculateForces = No
}
Options = {
  WriteDetailedOut = Yes
  WriteAutotestTag = No
  WriteDetailedXML = No
  WriteResultsTag = No
  RestartFrequency = 20
  RandomSeed = 0
  WriteHS = No
  WriteRealHS = No
  MinimiseMemoryUsage = No
  ShowFoldedCoords = No
  TimingVerbosity = 1
  WriteCharges = Yes
  WriteChargesAsText = No
  BinaryAccessTypes = {
"stream"
  }
}
ParserOptions = {
  ParserVersion = 13
  WriteHSDInput = Yes
  StopAfterParsing = No
  IgnoreUnprocessedNodes = No
}
Parallel = {
  UseOmpThreads = Yes
  Groups = 1
  Blacs = BlockSize {
32
  }
}
Reks = None {}
Driver = {}
ExcitedState = {}
