units metal
boundary p p p
atom_style full
pair_style dftbplus
