POSCAR file written by VESTA
1.0
       18.2285003662         0.0000000000         0.0000000000
        0.0000000000        14.5827999115         0.0000000000
        0.0000000000         0.0000000000        14.5827999115
   Cr   Fe   Mn   Co   Ni
   64   64   64   64   64
Cartesian
     1.822850064         0.000000000         1.822849989
     1.822850064         0.000000000         5.468549532
     1.822850064         0.000000000         9.114249945
     1.822850064         0.000000000        12.759949923
     1.822850064         3.645699978         1.822849989
     1.822850064         3.645699978         5.468549532
     1.822850064         3.645699978         9.114249945
     1.822850064         3.645699978        12.759949923
     1.822850064         7.291399956         1.822849989
     1.822850064         7.291399956         5.468549532
     1.822850064         7.291399956         9.114249945
     1.822850064         7.291399956        12.759949923
     1.822850064        10.937099064         1.822849989
     1.822850064        10.937099064         5.468549532
     1.822850064        10.937099064         9.114249945
     1.822850064        10.937099064        12.759949923
     5.468550327         0.000000000         1.822849989
     5.468550327         0.000000000         5.468549532
     5.468550327         0.000000000         9.114249945
     5.468550327         0.000000000        12.759949923
     5.468550327         3.645699978         1.822849989
     5.468550327         3.645699978         5.468549532
     5.468550327         3.645699978         9.114249945
     5.468550327         3.645699978        12.759949923
     5.468550327         7.291399956         1.822849989
     5.468550327         7.291399956         5.468549532
     5.468550327         7.291399956         9.114249945
     5.468550327         7.291399956        12.759949923
     5.468550327        10.937099064         1.822849989
     5.468550327        10.937099064         5.468549532
     5.468550327        10.937099064         9.114249945
     5.468550327        10.937099064        12.759949923
     9.114250183         0.000000000         1.822849989
     9.114250183         0.000000000         5.468549532
     9.114250183         0.000000000         9.114249945
     9.114250183         0.000000000        12.759949923
     9.114250183         3.645699978         1.822849989
     9.114250183         3.645699978         5.468549532
     9.114250183         3.645699978         9.114249945
     9.114250183         3.645699978        12.759949923
     9.114250183         7.291399956         1.822849989
     9.114250183         7.291399956         5.468549532
     9.114250183         7.291399956         9.114249945
     9.114250183         7.291399956        12.759949923
     9.114250183        10.937099064         1.822849989
     9.114250183        10.937099064         5.468549532
     9.114250183        10.937099064         9.114249945
     9.114250183        10.937099064        12.759949923
    12.759951126         0.000000000         1.822849989
    12.759951126         0.000000000         5.468549532
    12.759951126         0.000000000         9.114249945
    12.759951126         0.000000000        12.759949923
    12.759951126         3.645699978         1.822849989
    12.759951126         3.645699978         5.468549532
    12.759951126         3.645699978         9.114249945
    12.759951126         3.645699978        12.759949923
    12.759951126         7.291399956         1.822849989
    12.759951126         7.291399956         5.468549532
    12.759951126         7.291399956         9.114249945
    12.759951126         7.291399956        12.759949923
    12.759951126        10.937099064         1.822849989
    12.759951126        10.937099064         5.468549532
    12.759951126        10.937099064         9.114249945
    12.759951126        10.937099064        12.759949923
    16.405650981         0.000000000         1.822849989
    16.405650981         0.000000000         5.468549532
    16.405650981         0.000000000         9.114249945
    16.405650981         0.000000000        12.759949923
    16.405650981         3.645699978         1.822849989
    16.405650981         3.645699978         5.468549532
    16.405650981         3.645699978         9.114249945
    16.405650981         3.645699978        12.759949923
    16.405650981         7.291399956         1.822849989
    16.405650981         7.291399956         5.468549532
    16.405650981         7.291399956         9.114249945
    16.405650981         7.291399956        12.759949923
    16.405650981        10.937099064         1.822849989
    16.405650981        10.937099064         5.468549532
    16.405650981        10.937099064         9.114249945
    16.405650981        10.937099064        12.759949923
     1.822850064         1.822849989         0.000000000
     1.822850064         1.822849989         3.645699978
     1.822850064         1.822849989         7.291399956
     1.822850064         1.822849989        10.937099064
     1.822850064         5.468549532         0.000000000
     1.822850064         5.468549532         3.645699978
     1.822850064         5.468549532         7.291399956
     1.822850064         5.468549532        10.937099064
     1.822850064         9.114249945         0.000000000
     1.822850064         9.114249945         3.645699978
     1.822850064         9.114249945         7.291399956
     1.822850064         9.114249945        10.937099064
     1.822850064        12.759949923         0.000000000
     1.822850064        12.759949923         3.645699978
     1.822850064        12.759949923         7.291399956
     1.822850064        12.759949923        10.937099064
     5.468550327         1.822849989         0.000000000
     5.468550327         1.822849989         3.645699978
     5.468550327         1.822849989         7.291399956
     5.468550327         1.822849989        10.937099064
     5.468550327         5.468549532         0.000000000
     5.468550327         5.468549532         3.645699978
     5.468550327         5.468549532         7.291399956
     5.468550327         5.468549532        10.937099064
     5.468550327         9.114249945         0.000000000
     5.468550327         9.114249945         3.645699978
     5.468550327         9.114249945         7.291399956
     5.468550327         9.114249945        10.937099064
     5.468550327        12.759949923         0.000000000
     5.468550327        12.759949923         3.645699978
     5.468550327        12.759949923         7.291399956
     5.468550327        12.759949923        10.937099064
     9.114250183         1.822849989         0.000000000
     9.114250183         1.822849989         3.645699978
     9.114250183         1.822849989         7.291399956
     9.114250183         1.822849989        10.937099064
     9.114250183         5.468549532         0.000000000
     9.114250183         5.468549532         3.645699978
     9.114250183         5.468549532         7.291399956
     9.114250183         5.468549532        10.937099064
     9.114250183         9.114249945         0.000000000
     9.114250183         9.114249945         3.645699978
     9.114250183         9.114249945         7.291399956
     9.114250183         9.114249945        10.937099064
     9.114250183        12.759949923         0.000000000
     9.114250183        12.759949923         3.645699978
     9.114250183        12.759949923         7.291399956
     9.114250183        12.759949923        10.937099064
    12.759951126         1.822849989         0.000000000
    12.759951126         1.822849989         3.645699978
    12.759951126         1.822849989         7.291399956
    12.759951126         1.822849989        10.937099064
    12.759951126         5.468549532         0.000000000
    12.759951126         5.468549532         3.645699978
    12.759951126         5.468549532         7.291399956
    12.759951126         5.468549532        10.937099064
    12.759951126         9.114249945         0.000000000
    12.759951126         9.114249945         3.645699978
    12.759951126         9.114249945         7.291399956
    12.759951126         9.114249945        10.937099064
    12.759951126        12.759949923         0.000000000
    12.759951126        12.759949923         3.645699978
    12.759951126        12.759949923         7.291399956
    12.759951126        12.759949923        10.937099064
    16.405650981         1.822849989         0.000000000
    16.405650981         1.822849989         3.645699978
    16.405650981         1.822849989         7.291399956
    16.405650981         1.822849989        10.937099064
    16.405650981         5.468549532         0.000000000
    16.405650981         5.468549532         3.645699978
    16.405650981         5.468549532         7.291399956
    16.405650981         5.468549532        10.937099064
    16.405650981         9.114249945         0.000000000
    16.405650981         9.114249945         3.645699978
    16.405650981         9.114249945         7.291399956
    16.405650981         9.114249945        10.937099064
    16.405650981        12.759949923         0.000000000
    16.405650981        12.759949923         3.645699978
    16.405650981        12.759949923         7.291399956
    16.405650981        12.759949923        10.937099064
     0.000000000         0.000000000         0.000000000
     0.000000000         0.000000000         3.645699978
     0.000000000         0.000000000         7.291399956
     0.000000000         0.000000000        10.937099064
     0.000000000         3.645699978         0.000000000
     0.000000000         3.645699978         3.645699978
     0.000000000         3.645699978         7.291399956
     0.000000000         3.645699978        10.937099064
     0.000000000         7.291399956         0.000000000
     0.000000000         7.291399956         3.645699978
     0.000000000         7.291399956         7.291399956
     0.000000000         7.291399956        10.937099064
     0.000000000        10.937099064         0.000000000
     0.000000000        10.937099064         3.645699978
     0.000000000        10.937099064         7.291399956
     0.000000000        10.937099064        10.937099064
     3.645700128         0.000000000         0.000000000
     3.645700128         0.000000000         3.645699978
     3.645700128         0.000000000         7.291399956
     3.645700128         0.000000000        10.937099064
     3.645700128         3.645699978         0.000000000
     3.645700128         3.645699978         3.645699978
     3.645700128         3.645699978         7.291399956
     3.645700128         3.645699978        10.937099064
     3.645700128         7.291399956         0.000000000
     3.645700128         7.291399956         3.645699978
     3.645700128         7.291399956         7.291399956
     3.645700128         7.291399956        10.937099064
     3.645700128        10.937099064         0.000000000
     3.645700128        10.937099064         3.645699978
     3.645700128        10.937099064         7.291399956
     3.645700128        10.937099064        10.937099064
     7.291400255         0.000000000         0.000000000
     7.291400255         0.000000000         3.645699978
     7.291400255         0.000000000         7.291399956
     7.291400255         0.000000000        10.937099064
     7.291400255         3.645699978         0.000000000
     7.291400255         3.645699978         3.645699978
     7.291400255         3.645699978         7.291399956
     7.291400255         3.645699978        10.937099064
     7.291400255         7.291399956         0.000000000
     7.291400255         7.291399956         3.645699978
     7.291400255         7.291399956         7.291399956
     7.291400255         7.291399956        10.937099064
     7.291400255        10.937099064         0.000000000
     7.291400255        10.937099064         3.645699978
     7.291400255        10.937099064         7.291399956
     7.291400255        10.937099064        10.937099064
    10.937100654         0.000000000         0.000000000
    10.937100654         0.000000000         3.645699978
    10.937100654         0.000000000         7.291399956
    10.937100654         0.000000000        10.937099064
    10.937100654         3.645699978         0.000000000
    10.937100654         3.645699978         3.645699978
    10.937100654         3.645699978         7.291399956
    10.937100654         3.645699978        10.937099064
    10.937100654         7.291399956         0.000000000
    10.937100654         7.291399956         3.645699978
    10.937100654         7.291399956         7.291399956
    10.937100654         7.291399956        10.937099064
    10.937100654        10.937099064         0.000000000
    10.937100654        10.937099064         3.645699978
    10.937100654        10.937099064         7.291399956
    10.937100654        10.937099064        10.937099064
    14.582800510         0.000000000         0.000000000
    14.582800510         0.000000000         3.645699978
    14.582800510         0.000000000         7.291399956
    14.582800510         0.000000000        10.937099064
    14.582800510         3.645699978         0.000000000
    14.582800510         3.645699978         3.645699978
    14.582800510         3.645699978         7.291399956
    14.582800510         3.645699978        10.937099064
    14.582800510         7.291399956         0.000000000
    14.582800510         7.291399956         3.645699978
    14.582800510         7.291399956         7.291399956
    14.582800510         7.291399956        10.937099064
    14.582800510        10.937099064         0.000000000
    14.582800510        10.937099064         3.645699978
    14.582800510        10.937099064         7.291399956
    14.582800510        10.937099064        10.937099064
     0.000000000         1.822849989         1.822849989
     0.000000000         1.822849989         5.468549532
     0.000000000         1.822849989         9.114249945
     0.000000000         1.822849989        12.759949923
     0.000000000         5.468549532         1.822849989
     0.000000000         5.468549532         5.468549532
     0.000000000         5.468549532         9.114249945
     0.000000000         5.468549532        12.759949923
     0.000000000         9.114249945         1.822849989
     0.000000000         9.114249945         5.468549532
     0.000000000         9.114249945         9.114249945
     0.000000000         9.114249945        12.759949923
     0.000000000        12.759949923         1.822849989
     0.000000000        12.759949923         5.468549532
     0.000000000        12.759949923         9.114249945
     0.000000000        12.759949923        12.759949923
     3.645700128         1.822849989         1.822849989
     3.645700128         1.822849989         5.468549532
     3.645700128         1.822849989         9.114249945
     3.645700128         1.822849989        12.759949923
     3.645700128         5.468549532         1.822849989
     3.645700128         5.468549532         5.468549532
     3.645700128         5.468549532         9.114249945
     3.645700128         5.468549532        12.759949923
     3.645700128         9.114249945         1.822849989
     3.645700128         9.114249945         5.468549532
     3.645700128         9.114249945         9.114249945
     3.645700128         9.114249945        12.759949923
     3.645700128        12.759949923         1.822849989
     3.645700128        12.759949923         5.468549532
     3.645700128        12.759949923         9.114249945
     3.645700128        12.759949923        12.759949923
     7.291400255         1.822849989         1.822849989
     7.291400255         1.822849989         5.468549532
     7.291400255         1.822849989         9.114249945
     7.291400255         1.822849989        12.759949923
     7.291400255         5.468549532         1.822849989
     7.291400255         5.468549532         5.468549532
     7.291400255         5.468549532         9.114249945
     7.291400255         5.468549532        12.759949923
     7.291400255         9.114249945         1.822849989
     7.291400255         9.114249945         5.468549532
     7.291400255         9.114249945         9.114249945
     7.291400255         9.114249945        12.759949923
     7.291400255        12.759949923         1.822849989
     7.291400255        12.759949923         5.468549532
     7.291400255        12.759949923         9.114249945
     7.291400255        12.759949923        12.759949923
    10.937100654         1.822849989         1.822849989
    10.937100654         1.822849989         5.468549532
    10.937100654         1.822849989         9.114249945
    10.937100654         1.822849989        12.759949923
    10.937100654         5.468549532         1.822849989
    10.937100654         5.468549532         5.468549532
    10.937100654         5.468549532         9.114249945
    10.937100654         5.468549532        12.759949923
    10.937100654         9.114249945         1.822849989
    10.937100654         9.114249945         5.468549532
    10.937100654         9.114249945         9.114249945
    10.937100654         9.114249945        12.759949923
    10.937100654        12.759949923         1.822849989
    10.937100654        12.759949923         5.468549532
    10.937100654        12.759949923         9.114249945
    10.937100654        12.759949923        12.759949923
    14.582800510         1.822849989         1.822849989
    14.582800510         1.822849989         5.468549532
    14.582800510         1.822849989         9.114249945
    14.582800510         1.822849989        12.759949923
    14.582800510         5.468549532         1.822849989
    14.582800510         5.468549532         5.468549532
    14.582800510         5.468549532         9.114249945
    14.582800510         5.468549532        12.759949923
    14.582800510         9.114249945         1.822849989
    14.582800510         9.114249945         5.468549532
    14.582800510         9.114249945         9.114249945
    14.582800510         9.114249945        12.759949923
    14.582800510        12.759949923         1.822849989
    14.582800510        12.759949923         5.468549532
    14.582800510        12.759949923         9.114249945
    14.582800510        12.759949923        12.759949923
