Fe2
1.0
        8.5201549530         0.0000000000         0.0000000000
        0.0000000000         8.5201549530         0.0000000000
        0.0000000000         0.0000000000         8.5201549530
   Fe  Nb
   53   1
Cartesian
     0.000000000         0.000000000         0.000000000
     0.000000000         0.000000000         2.840051736
     0.000000000         0.000000000         5.680103471
     0.000000000         2.840051736         0.000000000
     0.000000000         2.840051736         2.840051736
     0.000000000         2.840051736         5.680103471
     0.000000000         5.680103471         0.000000000
     0.000000000         5.680103471         2.840051736
     0.000000000         5.680103471         5.680103471
     2.840051736         0.000000000         0.000000000
     2.840051736         0.000000000         2.840051736
     2.840051736         0.000000000         5.680103471
     2.840051736         2.840051736         0.000000000
     2.840051736         2.840051736         2.840051736
     2.840051736         2.840051736         5.680103471
     2.840051736         5.680103471         0.000000000
     2.840051736         5.680103471         2.840051736
     2.840051736         5.680103471         5.680103471
     5.680103471         0.000000000         0.000000000
     5.680103471         0.000000000         2.840051736
     5.680103471         0.000000000         5.680103471
     5.680103471         2.840051736         0.000000000
     5.680103471         2.840051736         2.840051736
     5.680103471         2.840051736         5.680103471
     5.680103471         5.680103471         0.000000000
     5.680103471         5.680103471         2.840051736
     5.680103471         5.680103471         5.680103471
     1.420025741         1.420025741         1.420025741
     1.420025741         1.420025741         4.260077477
     1.420025741         1.420025741         7.100128958
     1.420025741         4.260077477         1.420025741
     1.420025741         4.260077477         4.260077477
     1.420025741         4.260077477         7.100128958
     1.420025741         7.100128958         1.420025741
     1.420025741         7.100128958         4.260077477
     1.420025741         7.100128958         7.100128958
     4.260077477         1.420025741         1.420025741
     4.260077477         1.420025741         4.260077477
     4.260077477         1.420025741         7.100128958
     4.260077477         4.260077477         1.420025741
     4.260077477         4.260077477         4.260077477
     4.260077477         4.260077477         7.100128958
     4.260077477         7.100128958         1.420025741
     4.260077477         7.100128958         4.260077477
     4.260077477         7.100128958         7.100128958
     7.100128958         1.420025741         1.420025741
     7.100128958         1.420025741         4.260077477
     7.100128958         1.420025741         7.100128958
     7.100128958         4.260077477         1.420025741
     7.100128958         4.260077477         4.260077477
     7.100128958         4.260077477         7.100128958
     7.100128958         7.100128958         1.420025741
     7.100128958         7.100128958         4.260077477
     7.100128958         7.100128958         7.100128958
