Geometry = VaspFormat {
ZTC Model-I
1.0
24.0699996948         0.0000000000         0.0000000000
0.0000000000        24.0699996948         0.0000000000
0.0000000000         0.0000000000        24.0699996948
C    H
288   72
Cartesian
17.766066589        14.461255282        21.229740431
18.338932953         9.608744413         9.194740584
6.303933106         2.426255434        14.875259111
5.731066741        21.643744260         2.840259264
21.229740431        17.766066589        14.461255282
9.194740584        18.338932953         9.608744413
14.875259111         6.303933106         2.426255434
2.840259264         5.731066741        21.643744260
14.461255282        21.229740431        17.766066589
9.608744413         9.194740584        18.338932953
2.426255434        14.875259111         6.303933106
21.643744260         2.840259264         5.731066741
8.443755358        23.783566513         8.857759188
3.591244489         0.286433182        20.892759035
20.478755206        12.321433030        15.212240507
15.626244337        11.748566665         3.177240660
11.748566665         3.177240660        15.626244337
12.321433030        15.212240507        20.478755206
0.286433182        20.892759035         3.591244489
23.783566513         8.857759188         8.443755358
15.212240507        20.478755206        12.321433030
3.177240660        15.626244337        11.748566665
8.857759188         8.443755358        23.783566513
20.892759035         3.591244489         0.286433182
18.940682372        14.636966743        20.420987663
17.164317170         9.433032952         8.385987816
5.129317323         2.601966896        15.684011879
6.905682525        21.468032799         3.649012032
20.420987663        18.940682372        14.636966743
8.385987816        17.164317170         9.433032952
15.684011879         5.129317323         2.601966896
3.649012032         6.905682525        21.468032799
14.636966743        20.420987663        18.940682372
9.433032952         8.385987816        17.164317170
2.601966896        15.684011879         5.129317323
21.468032799         3.649012032         6.905682525
8.619466820         0.888182601         9.666511955
3.415533028        23.181817094        21.701511803
20.654466667        11.146817247        14.403487739
15.450532875        12.923182448         2.368487892
12.923182448         2.368487892        15.450532875
11.146817247        14.403487739        20.654466667
23.181817094        21.701511803         3.415533028
0.888182601         9.666511955         8.619466820
14.403487739        20.654466667        11.146817247
2.368487892        15.450532875        12.923182448
9.666511955         8.619466820         0.888182601
21.701511803         3.415533028        23.181817094
15.558847197        15.383137170        22.141992722
20.546152346         8.686862525        10.106992874
8.511152498         3.348137323        13.963006821
3.523847349        20.721862372         1.928006973
22.141992722        15.558847197        15.383137170
10.106992874        20.546152346         8.686862525
13.963006821         8.511152498         3.348137323
1.928006973         3.523847349        20.721862372
15.383137170        22.141992722        15.558847197
8.686862525        10.106992874        20.546152346
3.348137323        13.963006821         8.511152498
20.721862372         1.928006973         3.523847349
9.365637246        21.576347120         7.945506897
2.669362601         2.493652574        19.980506744
21.400637094        14.528652422        16.124492798
14.704362449         9.541347273         4.089492950
9.541347273         4.089492950        14.704362449
14.528652422        16.124492798        21.400637094
2.493652574        19.980506744         2.669362601
21.576347120         7.945506897         9.365637246
16.124492798        21.400637094        14.528652422
4.089492950        14.704362449         9.541347273
7.945506897         9.365637246        21.576347120
19.980506744         2.669362601         2.493652574
19.217487391        19.980506744        17.985104066
16.887512151         4.089492950         5.950104218
4.852512303         7.945506897        18.119895476
7.182487544        16.124492798         6.084895629
17.985104066        19.217487391        19.980506744
5.950104218        16.887512151         4.089492950
18.119895476         4.852512303         7.945506897
6.084895629         7.182487544        16.124492798
19.980506744        17.985104066        19.217487391
4.089492950         5.950104218        16.887512151
7.945506897        18.119895476         4.852512303
16.124492798         6.084895629         7.182487544
13.963006821         1.164987620        12.102395553
22.141992722        22.905012075         0.067395705
1.928006973        10.870012227        11.967604142
10.106992874        13.199987468        24.002603990
13.199987468        24.002603990        10.106992874
10.870012227        11.967604142         1.928006973
22.905012075         0.067395705        22.141992722
1.164987620        12.102395553        13.963006821
11.967604142         1.928006973        10.870012227
24.002603990        10.106992874        13.199987468
12.102395553        13.963006821         1.164987620
0.067395705        22.141992722        22.905012075
18.456875438        16.945279693        20.563001272
17.648124105         7.124720001         8.528001424
5.613124257         4.910279846        15.541998270
6.421875590        19.159719849         3.506998423
20.563001272        18.456875438        16.945279693
8.528001424        17.648124105         7.124720001
15.541998270         5.613124257         4.910279846
3.506998423         6.421875590        19.159719849
16.945279693        20.563001272        18.456875438
7.124720001         8.528001424        17.648124105
4.910279846        15.541998270         5.613124257
19.159719849         3.506998423         6.421875590
10.927779770         0.404375667         9.524498347
1.107220078        23.665624028        21.559498194
22.962779617        11.630624181        14.545501348
13.142219925        12.439375514         2.510501501
12.439375514         2.510501501        13.142219925
11.630624181        14.545501348        22.962779617
23.665624028        21.559498194         1.107220078
0.404375667         9.524498347        10.927779770
14.545501348        22.962779617        11.630624181
2.510501501        13.142219925        12.439375514
9.524498347        10.927779770         0.404375667
21.559498194         1.107220078        23.665624028
16.548124790        19.020113639        20.189916059
19.556874752         5.049886055         8.154916211
7.521874905         6.985113792        15.915083484
4.513124943        17.084885903         3.880083636
20.189916059        16.548124790        19.020113639
8.154916211        19.556874752         5.049886055
15.915083484         7.521874905         6.985113792
3.880083636         4.513124943        17.084885903
19.020113639        20.189916059        16.548124790
5.049886055         8.154916211        19.556874752
6.985113792        15.915083484         7.521874905
17.084885903         3.880083636         4.513124943
13.002613716        22.565624714         9.897583560
23.102385826         1.504374981        21.932583407
0.967613868        13.539374828        14.172416135
11.067385979        10.530624866         2.137416287
10.530624866         2.137416287        11.067385979
13.539374828        14.172416135         0.967613868
1.504374981        21.932583407        23.102385826
22.565624714         9.897583560        13.002613716
14.172416135         0.967613868        13.539374828
2.137416287        11.067385979        10.530624866
9.897583560        13.002613716        22.565624714
21.932583407        23.102385826         1.504374981
23.225143110        21.990352385        23.908731195
12.879856433         2.079647310        11.873731348
0.844856585         9.955352537        12.196268347
11.190143262        14.114647158         0.161268500
23.908731195        23.225143110        21.990352385
11.873731348        12.879856433         2.079647310
12.196268347         0.844856585         9.955352537
0.161268500        11.190143262        14.114647158
21.990352385        23.908731195        23.225143110
2.079647310        11.873731348        12.879856433
9.955352537        12.196268347         0.844856585
14.114647158         0.161268500        11.190143262
15.972852461         5.172643338         6.178768424
20.132147081        18.897356356        18.213768271
3.937852613         6.862356509        17.891231271
8.097147234        17.207643186         5.856231424
17.207643186         5.856231424         8.097147234
6.862356509        17.891231271         3.937852613
18.897356356        18.213768271        20.132147081
5.172643338         6.178768424        15.972852461
17.891231271         3.937852613         6.862356509
5.856231424         8.097147234        17.207643186
6.178768424        15.972852461         5.172643338
18.213768271        20.132147081        18.897356356
17.166723135        16.791231957        21.008295555
18.938276407         7.278767738         8.973295707
6.903276560         4.756232110        15.096703988
5.131723288        19.313767585         3.061704140
21.008295555        17.166723135        16.791231957
8.973295707        18.938276407         7.278767738
15.096703988         6.903276560         4.756232110
3.061704140         5.131723288        19.313767585
16.791231957        21.008295555        17.166723135
7.278767738         8.973295707        18.938276407
4.756232110        15.096703988         6.903276560
19.313767585         3.061704140         5.131723288
10.773732033        23.184223059         9.079204064
1.261267814         0.885776636        21.114203911
22.808731881        12.920776484        14.990795631
13.296267662        11.149223211         2.955795783
11.149223211         2.955795783        13.296267662
12.920776484        14.990795631        22.808731881
0.885776636        21.114203911         1.261267814
23.184223059         9.079204064        10.773732033
14.990795631        22.808731881        12.920776484
2.955795783        13.296267662        11.149223211
9.079204064        10.773732033        23.184223059
21.114203911         1.261267814         0.885776636
16.163005449        17.814207403        20.729083136
19.941994093         6.255792292         8.694083288
7.906994246         5.779207556        15.375916406
4.128005602        18.290792139         3.340916559
20.729083136        16.163005449        17.814207403
8.694083288        19.941994093         6.255792292
15.375916406         7.906994246         5.779207556
3.340916559         4.128005602        18.290792139
17.814207403        20.729083136        16.163005449
6.255792292         8.694083288        19.941994093
5.779207556        15.375916406         7.906994246
18.290792139         3.340916559         4.128005602
11.796707479        22.180505373         9.358416483
0.238292368         1.889494322        21.393416330
23.831707327        13.924494169        14.711583212
12.273292215        10.145505526         2.676583365
10.145505526         2.676583365        12.273292215
13.924494169        14.711583212        23.831707327
1.889494322        21.393416330         0.238292368
22.180505373         9.358416483        11.796707479
14.711583212        23.831707327        13.924494169
2.676583365        12.273292215        10.145505526
9.358416483        11.796707479        22.180505373
21.393416330         0.238292368         1.889494322
19.299326058        15.891013794        20.033460923
16.805673484         8.178985901         7.998461075
4.770673637         3.856013947        16.071538619
7.264326211        20.213985748         4.036538772
20.033460923        19.299326058        15.891013794
7.998461075        16.805673484         8.178985901
16.071538619         4.770673637         3.856013947
4.036538772         7.264326211        20.213985748
15.891013794        20.033460923        19.299326058
8.178985901         7.998461075        16.805673484
3.856013947        16.071538619         4.770673637
20.213985748         4.036538772         7.264326211
9.873513870         1.246826287        10.054038696
2.161485977        22.823173408        22.089038543
21.908513718        10.788173560        14.015960999
14.196485825        13.281826135         1.980961152
13.281826135         1.980961152        14.196485825
10.788173560        14.015960999        21.908513718
22.823173408        22.089038543         2.161485977
1.246826287        10.054038696         9.873513870
14.015960999        21.908513718        10.788173560
1.980961152        14.196485825        13.281826135
10.054038696         9.873513870         1.246826287
22.089038543         2.161485977        22.823173408
14.793421879        17.303923380        20.813329202
21.311577663         6.766076315         8.778329355
9.276577816         5.268923532        15.291670340
2.758422032        18.801076163         3.256670493
20.813329202        14.793421879        17.303923380
8.778329355        21.311577663         6.766076315
15.291670340         9.276577816         5.268923532
3.256670493         2.758422032        18.801076163
17.303923380        20.813329202        14.793421879
6.766076315         8.778329355        21.311577663
5.268923532        15.291670340         9.276577816
18.801076163         3.256670493         2.758422032
11.286423456        20.810921803         9.274170416
0.748576391         3.259077892        21.309170264
23.321423303        15.294077740        14.795829278
12.783576239         8.775921955         2.760829431
8.775921955         2.760829431        12.783576239
15.294077740        14.795829278        23.321423303
3.259077892        21.309170264         0.748576391
20.810921803         9.274170416        11.286423456
14.795829278        23.321423303        15.294077740
2.760829431        12.783576239         8.775921955
9.274170416        11.286423456        20.810921803
21.309170264         0.748576391         3.259077892
16.880291387        15.477009964        21.487289125
19.224708155         8.592989730         9.452289277
7.189708307         3.442010117        14.617710418
4.845291540        20.627989578         2.582710570
21.487289125        16.880291387        15.477009964
9.452289277        19.224708155         8.592989730
14.617710418         7.189708307         3.442010117
2.582710570         4.845291540        20.627989578
15.477009964        21.487289125        16.880291387
8.592989730         9.452289277        19.224708155
3.442010117        14.617710418         7.189708307
20.627989578         2.582710570         4.845291540
9.459510041        22.897791311         8.600210494
2.575489807         1.172208384        20.635210341
21.494509888        13.207208231        15.469789201
14.610489654        10.862791464         3.434789354
10.862791464         3.434789354        14.610489654
13.207208231        15.469789201        21.494509888
1.172208384        20.635210341         2.575489807
22.897791311         8.600210494         9.459510041
15.469789201        21.494509888        13.207208231
3.434789354        14.610489654        10.862791464
8.600210494         9.459510041        22.897791311
20.635210341         2.575489807         1.172208384
13.450315398        21.598010846        17.551843911
22.654684144         2.471988849         5.516844063
10.619684297         9.563010998        18.553155632
1.415315551        14.506988697         6.518155784
17.551843911        13.450315398        21.598010846
5.516844063        22.654684144         2.471988849
18.553155632        10.619684297         9.563010998
6.518155784         1.415315551        14.506988697
21.598010846        17.551843911        13.450315398
2.471988849         5.516844063        22.654684144
9.563010998        18.553155632        10.619684297
14.506988697         6.518155784         1.415315551
15.580510922        19.467815322        12.535655708
20.524488620         4.602184373         0.500655861
3.545511074        16.637184221        11.534343987
8.489488773         7.432815474        23.569343834
7.432815474        23.569343834         8.489488773
16.637184221        11.534343987         3.545511074
4.602184373         0.500655861        20.524488620
19.467815322        12.535655708        15.580510922
11.534343987         3.545511074        16.637184221
23.569343834         8.489488773         7.432815474
12.535655708        15.580510922        19.467815322
0.500655861        20.524488620         4.602184373
13.748784142        20.127333717        19.499107210
22.356215400         3.942665978         7.464107362
10.321215552         8.092333870        16.605892333
1.713784295        15.977665825         4.570892485
19.499107210        13.748784142        20.127333717
7.464107362        22.356215400         3.942665978
16.605892333        10.321215552         8.092333870
4.570892485         1.713784295        15.977665825
20.127333717        19.499107210        13.748784142
3.942665978         7.464107362        22.356215400
8.092333870        16.605892333        10.321215552
15.977665825         4.570892485         1.713784295
14.109833794        19.766284066        10.588392409
21.995165749         4.303715629        22.623392256
2.074833946        16.338715476        13.481607286
9.960165901         7.731284219         1.446607438
7.731284219         1.446607438         9.960165901
16.338715476        13.481607286         2.074833946
4.303715629        22.623392256        21.995165749
19.766284066        10.588392409        14.109833794
13.481607286         2.074833946        16.338715476
1.446607438         9.960165901         7.731284219
10.588392409        14.109833794        19.766284066
22.623392256        21.995165749         4.303715629
14.003925437        17.898452035        20.336743031
22.101074105         6.171547660         8.301743184
10.066074258         5.863452187        15.768256511
1.968925589        18.206547507         3.733256663
20.336743031        14.003925437        17.898452035
8.301743184        22.101074105         6.171547660
15.768256511        10.066074258         5.863452187
3.733256663         1.968925589        18.206547507
17.898452035        20.336743031        14.003925437
6.171547660         8.301743184        22.101074105
5.863452187        15.768256511        10.066074258
18.206547507         3.733256663         1.968925589
11.880952111        20.021425361         9.750756587
0.154047736         4.048574334        21.785756435
23.915951958        16.083574182        14.319243108
12.189047584         7.986425513         2.284243260
7.986425513         2.284243260        12.189047584
16.083574182        14.319243108        23.915951958
4.048574334        21.785756435         0.154047736
20.021425361         9.750756587        11.880952111
14.319243108        23.915951958        16.083574182
2.284243260        12.189047584         7.986425513
9.750756587        11.880952111        20.021425361
21.785756435         0.154047736         4.048574334
}
Hamiltonian = xTB {
  Method = "GFN2-xTB"
  SCC = Yes
  SCCTolerance = 1.0e-3
  MaxSCCIterations = 1000
  Mixer = Broyden {
    MixingParameter = 0.20
    InverseJacobiWeight = 0.01
    WeightFactor = 0.01
    MinimalWeight = 1.0000000000000000
    MaximalWeight = 100000.00000000000
  }
  Charge = 0.0
  KPointsAndWeights = SuperCellFolding {
1 0 0
0 1 0
0 0 1
0.0 0.0 0.0
  }
  ShellResolvedSCC = No
  SpinPolarisation = {}
  Solver = RelativelyRobust {}
  ReadInitialCharges = No
  InitialCharges = {}
  EwaldParameter = 0.0000000000000000
  EwaldTolerance = 1.0000000000000001E-009
  ConvergentSCCOnly = Yes
  ElectricField = {}
  Dispersion = {}
  Solvation = {}
  Electrostatics = GammaFunctional {}
  ForceEvaluation = "Traditional"
  Differentiation = FiniteDiff {
    Delta = 1.2207031250000000E-004
  }
  Filling = Fermi {
    Temperature = 9.5004460357391702E-004
    IndependentKFilling = No
  }
}
Analysis = {
  ProjectStates = {}
  WriteEigenvectors = No
  WriteBandOut = Yes
  MullikenAnalysis = Yes
  WriteNetCharges = No
  AtomResolvedEnergies = No
  CalculateForces = No
}
Options = {
  WriteDetailedOut = Yes
  WriteAutotestTag = No
  WriteDetailedXML = No
  WriteResultsTag = No
  RestartFrequency = 20
  RandomSeed = 0
  WriteHS = No
  WriteRealHS = No
  MinimiseMemoryUsage = No
  ShowFoldedCoords = No
  TimingVerbosity = 1
  WriteCharges = Yes
  WriteChargesAsText = No
  BinaryAccessTypes = {
"stream"
  }
}
ParserOptions = {
  ParserVersion = 13
  WriteHSDInput = Yes
  StopAfterParsing = No
  IgnoreUnprocessedNodes = No
}
Parallel = {
  UseOmpThreads = Yes
  Groups = 1
  Blacs = BlockSize {
32
  }
}
Reks = None {}
Driver = {}
ExcitedState = {}
