POSCAR file written by OVITO Basic 3.8.4
1.0
       15.4678983688         0.0000000000         0.0000000000
        0.0000000000        11.6009235382         0.0000000000
        0.0000000000         0.0000000000        45.0000000000
   Ti   Si    O    C    H
    1   96    4   12   51
Cartesian
     8.056898370         4.939517612        31.126566231
    13.601998935         7.733998350        15.604996830
    13.601998935         3.866999175        15.604996830
    13.601998935         0.000038031        15.604996830
     5.867999043         7.733998350        15.604996830
     5.867999043         3.866999175        15.604996830
     5.867999043         0.000038031        15.604996830
     9.602998029         7.733998350        15.846997797
     9.602998029         3.866999175        15.846997797
     9.602998029         0.000038031        15.846997797
     1.869050458         7.733998350        15.846997797
     1.869050458         3.866999175        15.846997797
     1.869050458         0.000038031        15.846997797
    13.553998083         9.666997660        14.205998182
    13.553998083         5.799999868        14.205998182
    13.553998083         1.932999483        14.205998182
     5.819999574         9.666997660        14.205998182
     5.819999574         5.799999868        14.205998182
     5.819999574         1.932999483        14.205998182
     9.681998816         9.666997660        14.506997019
     9.681998816         5.799999868        14.506997019
     9.681998816         1.932999483        14.506997019
     1.947999616         9.666997660        14.506997019
     1.947999616         5.799999868        14.506997019
     1.947999616         1.932999483        14.506997019
    11.487998601         9.666997660        12.971996963
    11.487998601         5.799999868        12.971996963
    11.487998601         1.932999483        12.971996963
     3.753999631         9.666997660        12.971996963
     3.753999631         5.799999868        12.971996963
     3.753999631         1.932999483        12.971996963
     7.839998393         9.667460253        12.924997956
     7.839998393         5.799999868        12.924997956
     7.839998393         1.933037513        12.924997956
     0.105700463         9.667306747        12.924997956
     0.105550710         5.799999868        12.924997956
     0.105700463         1.933024894        12.924997956
    11.158998601         7.733998350        11.577997953
    11.158998601         3.866999175        11.577997953
    11.158998601         0.000038031        11.577997953
     3.424999631         7.733998350        11.577997953
     3.424999631         3.866999175        11.577997953
     3.424999631         0.000038031        11.577997953
     8.948998407         7.733998350        12.227996439
     8.948998407         3.866999175        12.227996439
     8.948998407         0.000038031        12.227996439
     1.214999783         7.733998350        12.227996439
     1.214999783         3.866999175        12.227996439
     1.214999783         0.000038031        12.227996439
    12.318998598         7.733998350        20.584995300
    12.318998598         3.866999175        20.584995300
    12.318998598         0.000038031        20.584995300
     4.584999167         7.733998350        20.584995300
     4.584999167         3.866999175        20.584995300
     4.584999167         0.000038031        20.584995300
    10.108998405         7.733998350        21.233996004
    10.108998405         3.866999175        21.233996004
    10.108998405         0.000038031        21.233996004
     2.374999665         7.733998350        21.233996004
     2.374999665         3.866999175        21.233996004
     2.374999665         0.000038031        21.233996004
    13.428998016         9.666997660        19.887999147
    13.428998016         5.799999868        19.887999147
    13.428998016         1.932999483        19.887999147
     5.694999506         9.666997660        19.887999147
     5.694999506         5.799999868        19.887999147
     5.694999506         1.932999483        19.887999147
     9.780997808         9.666997660        19.841000140
     9.780997808         5.799999868        19.841000140
     9.780997808         1.932999483        19.841000140
     2.046999529         9.666997660        19.841000140
     2.046999529         5.799999868        19.841000140
     2.046999529         1.932999483        19.841000140
    11.586998514         9.667460253        18.305000961
    11.586998514         5.799999868        18.305000961
    11.586998514         1.933037513        18.305000961
     3.852999544         9.667460253        18.305000961
     3.852999544         5.799999868        18.305000961
     3.852999544         1.933037513        18.305000961
    15.447964702         9.667306747        18.606998920
    15.447948107         5.799999868        18.606998920
    15.447964702         1.933024894        18.606998920
     7.713999384         9.667460253        18.606998920
     7.713999384         5.799999868        18.606998920
     7.713999384         1.933037513        18.606998920
    11.664998055         7.733998350        16.965995282
    11.664998055         3.866999175        16.965995282
    11.664998055         0.000038031        16.965995282
     3.930999084         7.733998350        16.965995282
     3.930999084         3.866999175        16.965995282
     3.930999084         0.000038031        16.965995282
    15.399997963         7.733998350        17.207001150
    15.399997963         3.866999175        17.207001150
    15.399997963         0.000038031        17.207001150
     7.665998993         7.733998350        17.207001150
     7.665998993         3.866999175        17.207001150
     7.665998993         0.000038031        17.207001150
     6.279899715         5.430517250        30.363566279
     8.745899228         6.850516109        31.118565202
     9.656899416         4.226516689        32.035569549
     8.833898331         4.496517326        29.281565845
     3.943899590         5.641516227        30.923565924
     5.377899687         6.020516223        31.297570467
     5.590898857         5.666517323        32.775566876
     8.667897844         7.671515835        29.956567883
     7.249898799         8.153516697        29.629569054
     9.491899253         8.939516340        30.234570801
     9.244898250         4.062517200        33.361565173
     7.876898863         3.382516977        33.406567276
    10.200898315         3.166516951        34.157567024
    10.235897707         4.588517267        28.958566189
    11.144898166         3.556517526        29.653569460
    10.390897384         4.323517332        27.445566952
     3.219899801         6.117516176        31.620567441
     3.811899552         4.538517494        30.976569057
     3.716899787         5.986516005        29.894565940
     5.450898985         7.118516327        31.243566871
     5.342899834         4.603517648        32.970566154
     4.884898927         6.245516063        33.408568203
     6.613899036         5.940516034        33.106567562
     9.095899601         7.176516049        29.064567089
     6.797899843         8.641516743        30.518571138
     6.619899142         7.348516179        29.229565859
     7.265899851         8.904516258        28.812565506
     9.098897810         9.460516049        31.136568189
     9.429898460         9.650516498        29.379568398
    10.558897600         8.694516453        30.401567817
     9.199897451         5.077517523        33.813568354
     7.926898522         2.312517562        33.125565648
     7.220899052         3.806517080        32.657571137
     7.423899121         3.493517101        34.414570928
    10.193897883         2.131517618        33.745566308
     9.856898048         3.111516821        35.214566588
    11.237898895         3.549517095        34.134567082
    10.625899097         5.607517391        29.147568047
    10.743898732         2.526517687        29.546568096
    11.357897337         3.786517032        30.702567995
    12.162899024         3.578517302        29.200568497
    10.054897875         3.293516974        27.187567949
    11.460899472         4.406517114        27.136568427
     9.815897628         5.048517316        26.838566959
    11.365998587         7.964998757        10.192000642
    11.365998587         4.097999237        10.192000642
    11.365998587         0.231037509        10.192000642
     3.631999386         7.964998757        10.192000642
     3.631999386         4.097999237        10.192000642
     3.631999386         0.231037509        10.192000642
     8.288997757        11.314960340        11.003997847
     8.288997757         7.447998505        11.003997847
     8.288997757         3.580999329        11.003997847
     0.554999882        11.314960340        11.003997847
     0.554999882         7.447998505        11.003997847
     0.554999882         3.580999329        11.003997847
    13.054999061        11.103460048        21.692997068
    13.054999061         7.235998281        21.692997068
    13.054999061         3.368999105        21.692997068
     5.320999169        11.103460048        21.692997068
     5.320999169         7.235998281        21.692997068
     5.320999169         3.368999105        21.692997068
     9.740998634         7.739998226        22.605995536
     9.740998634         0.005537690        22.605995536
     2.006999664         7.739998226        22.605995536
     2.006999664         3.872999051        22.605995536
     2.006999664         0.005537690        22.605995536
