Geometry = VaspFormat {
Li1 Nd1 O3
1.0
11.3164319992         0.0000000000         0.0000000000
0.0000000000        11.3164319992         0.0000000000
0.0000000000         0.0000000000        11.3164319992
Li   Nd    O
27   27   81
Cartesian
1.886072056         1.886072056         1.886072056
1.886072056         1.886072056         5.658216000
1.886072056         1.886072056         9.430359775
1.886072056         5.658216000         1.886072056
1.886072056         5.658216000         5.658216000
1.886072056         5.658216000         9.430359775
1.886072056         9.430359775         1.886072056
1.886072056         9.430359775         5.658216000
1.886072056         9.430359775         9.430359775
5.658216000         1.886072056         1.886072056
5.658216000         1.886072056         5.658216000
5.658216000         1.886072056         9.430359775
5.658216000         5.658216000         1.886072056
5.658216000         5.658216000         5.658216000
5.658216000         5.658216000         9.430359775
5.658216000         9.430359775         1.886072056
5.658216000         9.430359775         5.658216000
5.658216000         9.430359775         9.430359775
9.430359775         1.886072056         1.886072056
9.430359775         1.886072056         5.658216000
9.430359775         1.886072056         9.430359775
9.430359775         5.658216000         1.886072056
9.430359775         5.658216000         5.658216000
9.430359775         5.658216000         9.430359775
9.430359775         9.430359775         1.886072056
9.430359775         9.430359775         5.658216000
9.430359775         9.430359775         9.430359775
0.000000000         0.000000000         0.000000000
0.000000000         0.000000000         3.772144112
0.000000000         0.000000000         7.544288224
0.000000000         3.772144112         0.000000000
0.000000000         3.772144112         3.772144112
0.000000000         3.772144112         7.544288224
0.000000000         7.544288224         0.000000000
0.000000000         7.544288224         3.772144112
0.000000000         7.544288224         7.544288224
3.772144112         0.000000000         0.000000000
3.772144112         0.000000000         3.772144112
3.772144112         0.000000000         7.544288224
3.772144112         3.772144112         0.000000000
3.772144112         3.772144112         3.772144112
3.772144112         3.772144112         7.544288224
3.772144112         7.544288224         0.000000000
3.772144112         7.544288224         3.772144112
3.772144112         7.544288224         7.544288224
7.544288224         0.000000000         0.000000000
7.544288224         0.000000000         3.772144112
7.544288224         0.000000000         7.544288224
7.544288224         3.772144112         0.000000000
7.544288224         3.772144112         3.772144112
7.544288224         3.772144112         7.544288224
7.544288224         7.544288224         0.000000000
7.544288224         7.544288224         3.772144112
7.544288224         7.544288224         7.544288224
1.886072056         1.886072056         0.000000000
1.886072056         1.886072056         3.772144112
1.886072056         1.886072056         7.544288224
1.886072056         5.658216000         0.000000000
1.886072056         5.658216000         3.772144112
1.886072056         5.658216000         7.544288224
1.886072056         9.430359775         0.000000000
1.886072056         9.430359775         3.772144112
1.886072056         9.430359775         7.544288224
5.658216000         1.886072056         0.000000000
5.658216000         1.886072056         3.772144112
5.658216000         1.886072056         7.544288224
5.658216000         5.658216000         0.000000000
5.658216000         5.658216000         3.772144112
5.658216000         5.658216000         7.544288224
5.658216000         9.430359775         0.000000000
5.658216000         9.430359775         3.772144112
5.658216000         9.430359775         7.544288224
9.430359775         1.886072056         0.000000000
9.430359775         1.886072056         3.772144112
9.430359775         1.886072056         7.544288224
9.430359775         5.658216000         0.000000000
9.430359775         5.658216000         3.772144112
9.430359775         5.658216000         7.544288224
9.430359775         9.430359775         0.000000000
9.430359775         9.430359775         3.772144112
9.430359775         9.430359775         7.544288224
1.886072056         0.000000000         1.886072056
1.886072056         0.000000000         5.658216000
1.886072056         0.000000000         9.430359775
1.886072056         3.772144112         1.886072056
1.886072056         3.772144112         5.658216000
1.886072056         3.772144112         9.430359775
1.886072056         7.544288224         1.886072056
1.886072056         7.544288224         5.658216000
1.886072056         7.544288224         9.430359775
5.658216000         0.000000000         1.886072056
5.658216000         0.000000000         5.658216000
5.658216000         0.000000000         9.430359775
5.658216000         3.772144112         1.886072056
5.658216000         3.772144112         5.658216000
5.658216000         3.772144112         9.430359775
5.658216000         7.544288224         1.886072056
5.658216000         7.544288224         5.658216000
5.658216000         7.544288224         9.430359775
9.430359775         0.000000000         1.886072056
9.430359775         0.000000000         5.658216000
9.430359775         0.000000000         9.430359775
9.430359775         3.772144112         1.886072056
9.430359775         3.772144112         5.658216000
9.430359775         3.772144112         9.430359775
9.430359775         7.544288224         1.886072056
9.430359775         7.544288224         5.658216000
9.430359775         7.544288224         9.430359775
0.000000000         1.886072056         1.886072056
0.000000000         1.886072056         5.658216000
0.000000000         1.886072056         9.430359775
0.000000000         5.658216000         1.886072056
0.000000000         5.658216000         5.658216000
0.000000000         5.658216000         9.430359775
0.000000000         9.430359775         1.886072056
0.000000000         9.430359775         5.658216000
0.000000000         9.430359775         9.430359775
3.772144112         1.886072056         1.886072056
3.772144112         1.886072056         5.658216000
3.772144112         1.886072056         9.430359775
3.772144112         5.658216000         1.886072056
3.772144112         5.658216000         5.658216000
3.772144112         5.658216000         9.430359775
3.772144112         9.430359775         1.886072056
3.772144112         9.430359775         5.658216000
3.772144112         9.430359775         9.430359775
7.544288224         1.886072056         1.886072056
7.544288224         1.886072056         5.658216000
7.544288224         1.886072056         9.430359775
7.544288224         5.658216000         1.886072056
7.544288224         5.658216000         5.658216000
7.544288224         5.658216000         9.430359775
7.544288224         9.430359775         1.886072056
7.544288224         9.430359775         5.658216000
7.544288224         9.430359775         9.430359775
}
Hamiltonian = xTB {
  Method = "GFN2-xTB"
  SCC = Yes
  SCCTolerance = 1.0e-3
  MaxSCCIterations = 1000
  Mixer = Broyden {
    MixingParameter = 0.05
    InverseJacobiWeight = 0.01
    WeightFactor = 0.01
    MinimalWeight = 1.0000000000000000
    MaximalWeight = 100000.00000000000
  }
  Charge = 0.0
  KPointsAndWeights = SuperCellFolding {
1 0 0
0 1 0
0 0 1
0.0 0.0 0.0
  }
  ShellResolvedSCC = No
  SpinPolarisation = {}
  Solver = RelativelyRobust {}
  ReadInitialCharges = No
  InitialCharges = {}
  EwaldParameter = 0.0000000000000000
  EwaldTolerance = 1.0000000000000001E-009
  ConvergentSCCOnly = Yes
  ElectricField = {}
  Dispersion = {}
  Solvation = {}
  Electrostatics = GammaFunctional {}
  ForceEvaluation = "Traditional"
  Filling = MethfesselPaxton {
    Order = 2
    Temperature [Kelvin] = 573
    IndependentKFilling = No
  }
  Differentiation = FiniteDiff {
    Delta = 1.2207031250000000E-004
  }
}
Analysis = {
  ProjectStates = {}
  WriteEigenvectors = No
  WriteBandOut = Yes
  MullikenAnalysis = Yes
  WriteNetCharges = No
  AtomResolvedEnergies = No
  CalculateForces = No
}
Options = {
  WriteDetailedOut = Yes
  WriteAutotestTag = No
  WriteDetailedXML = No
  WriteResultsTag = No
  RestartFrequency = 20
  RandomSeed = 0
  WriteHS = No
  WriteRealHS = No
  MinimiseMemoryUsage = No
  ShowFoldedCoords = No
  TimingVerbosity = 1
  WriteCharges = Yes
  WriteChargesAsText = No
  BinaryAccessTypes = {
"stream"
  }
}
ParserOptions = {
  ParserVersion = 13
  WriteHSDInput = Yes
  StopAfterParsing = No
  IgnoreUnprocessedNodes = No
}
Parallel = {
  UseOmpThreads = Yes
  Groups = 1
  Blacs = BlockSize {
32
  }
}
Reks = None {}
Driver = {}
ExcitedState = {}
