Li1 Nd1 O3
1.0
       11.3164319992         0.0000000000         0.0000000000
        0.0000000000        11.3164319992         0.0000000000
        0.0000000000         0.0000000000        11.3164319992
   Li   Nd    O
   27   27   81
Cartesian
     1.886072056         1.886072056         1.886072056
     1.886072056         1.886072056         5.658216000
     1.886072056         1.886072056         9.430359775
     1.886072056         5.658216000         1.886072056
     1.886072056         5.658216000         5.658216000
     1.886072056         5.658216000         9.430359775
     1.886072056         9.430359775         1.886072056
     1.886072056         9.430359775         5.658216000
     1.886072056         9.430359775         9.430359775
     5.658216000         1.886072056         1.886072056
     5.658216000         1.886072056         5.658216000
     5.658216000         1.886072056         9.430359775
     5.658216000         5.658216000         1.886072056
     5.658216000         5.658216000         5.658216000
     5.658216000         5.658216000         9.430359775
     5.658216000         9.430359775         1.886072056
     5.658216000         9.430359775         5.658216000
     5.658216000         9.430359775         9.430359775
     9.430359775         1.886072056         1.886072056
     9.430359775         1.886072056         5.658216000
     9.430359775         1.886072056         9.430359775
     9.430359775         5.658216000         1.886072056
     9.430359775         5.658216000         5.658216000
     9.430359775         5.658216000         9.430359775
     9.430359775         9.430359775         1.886072056
     9.430359775         9.430359775         5.658216000
     9.430359775         9.430359775         9.430359775
     0.000000000         0.000000000         0.000000000
     0.000000000         0.000000000         3.772144112
     0.000000000         0.000000000         7.544288224
     0.000000000         3.772144112         0.000000000
     0.000000000         3.772144112         3.772144112
     0.000000000         3.772144112         7.544288224
     0.000000000         7.544288224         0.000000000
     0.000000000         7.544288224         3.772144112
     0.000000000         7.544288224         7.544288224
     3.772144112         0.000000000         0.000000000
     3.772144112         0.000000000         3.772144112
     3.772144112         0.000000000         7.544288224
     3.772144112         3.772144112         0.000000000
     3.772144112         3.772144112         3.772144112
     3.772144112         3.772144112         7.544288224
     3.772144112         7.544288224         0.000000000
     3.772144112         7.544288224         3.772144112
     3.772144112         7.544288224         7.544288224
     7.544288224         0.000000000         0.000000000
     7.544288224         0.000000000         3.772144112
     7.544288224         0.000000000         7.544288224
     7.544288224         3.772144112         0.000000000
     7.544288224         3.772144112         3.772144112
     7.544288224         3.772144112         7.544288224
     7.544288224         7.544288224         0.000000000
     7.544288224         7.544288224         3.772144112
     7.544288224         7.544288224         7.544288224
     1.886072056         1.886072056         0.000000000
     1.886072056         1.886072056         3.772144112
     1.886072056         1.886072056         7.544288224
     1.886072056         5.658216000         0.000000000
     1.886072056         5.658216000         3.772144112
     1.886072056         5.658216000         7.544288224
     1.886072056         9.430359775         0.000000000
     1.886072056         9.430359775         3.772144112
     1.886072056         9.430359775         7.544288224
     5.658216000         1.886072056         0.000000000
     5.658216000         1.886072056         3.772144112
     5.658216000         1.886072056         7.544288224
     5.658216000         5.658216000         0.000000000
     5.658216000         5.658216000         3.772144112
     5.658216000         5.658216000         7.544288224
     5.658216000         9.430359775         0.000000000
     5.658216000         9.430359775         3.772144112
     5.658216000         9.430359775         7.544288224
     9.430359775         1.886072056         0.000000000
     9.430359775         1.886072056         3.772144112
     9.430359775         1.886072056         7.544288224
     9.430359775         5.658216000         0.000000000
     9.430359775         5.658216000         3.772144112
     9.430359775         5.658216000         7.544288224
     9.430359775         9.430359775         0.000000000
     9.430359775         9.430359775         3.772144112
     9.430359775         9.430359775         7.544288224
     1.886072056         0.000000000         1.886072056
     1.886072056         0.000000000         5.658216000
     1.886072056         0.000000000         9.430359775
     1.886072056         3.772144112         1.886072056
     1.886072056         3.772144112         5.658216000
     1.886072056         3.772144112         9.430359775
     1.886072056         7.544288224         1.886072056
     1.886072056         7.544288224         5.658216000
     1.886072056         7.544288224         9.430359775
     5.658216000         0.000000000         1.886072056
     5.658216000         0.000000000         5.658216000
     5.658216000         0.000000000         9.430359775
     5.658216000         3.772144112         1.886072056
     5.658216000         3.772144112         5.658216000
     5.658216000         3.772144112         9.430359775
     5.658216000         7.544288224         1.886072056
     5.658216000         7.544288224         5.658216000
     5.658216000         7.544288224         9.430359775
     9.430359775         0.000000000         1.886072056
     9.430359775         0.000000000         5.658216000
     9.430359775         0.000000000         9.430359775
     9.430359775         3.772144112         1.886072056
     9.430359775         3.772144112         5.658216000
     9.430359775         3.772144112         9.430359775
     9.430359775         7.544288224         1.886072056
     9.430359775         7.544288224         5.658216000
     9.430359775         7.544288224         9.430359775
     0.000000000         1.886072056         1.886072056
     0.000000000         1.886072056         5.658216000
     0.000000000         1.886072056         9.430359775
     0.000000000         5.658216000         1.886072056
     0.000000000         5.658216000         5.658216000
     0.000000000         5.658216000         9.430359775
     0.000000000         9.430359775         1.886072056
     0.000000000         9.430359775         5.658216000
     0.000000000         9.430359775         9.430359775
     3.772144112         1.886072056         1.886072056
     3.772144112         1.886072056         5.658216000
     3.772144112         1.886072056         9.430359775
     3.772144112         5.658216000         1.886072056
     3.772144112         5.658216000         5.658216000
     3.772144112         5.658216000         9.430359775
     3.772144112         9.430359775         1.886072056
     3.772144112         9.430359775         5.658216000
     3.772144112         9.430359775         9.430359775
     7.544288224         1.886072056         1.886072056
     7.544288224         1.886072056         5.658216000
     7.544288224         1.886072056         9.430359775
     7.544288224         5.658216000         1.886072056
     7.544288224         5.658216000         5.658216000
     7.544288224         5.658216000         9.430359775
     7.544288224         9.430359775         1.886072056
     7.544288224         9.430359775         5.658216000
     7.544288224         9.430359775         9.430359775
