Geometry = VaspFormat {
Nb3 Fe3 B3
1.0
12.0174093246         0.0000000000         0.0000000000
0.0000000000        10.4073820114         0.0000000000
0.0000000000         0.0000000000         9.6526956558
Nb   Fe    B
36   36   36
Cartesian
1.235146368         2.139336471         1.608782657
1.235146368         2.139336471         4.826347828
1.235146368         2.139336471         8.043912855
10.248203272         7.343027166         1.608782657
10.248203272         7.343027166         4.826347828
10.248203272         7.343027166         8.043912855
7.243850941         2.139336471         1.608782657
7.243850941         2.139336471         4.826347828
7.243850941         2.139336471         8.043912855
4.239498610         7.343027166         1.608782657
4.239498610         7.343027166         4.826347828
4.239498610         7.343027166         8.043912855
3.538412105         0.000000000         1.608782657
3.538412105         0.000000000         4.826347828
3.538412105         0.000000000         8.043912855
0.534059774         5.203691006         1.608782657
0.534059774         5.203691006         4.826347828
0.534059774         5.203691006         8.043912855
9.547117484         0.000000000         1.608782657
9.547117484         0.000000000         4.826347828
9.547117484         0.000000000         8.043912855
6.542764436         5.203691006         1.608782657
6.542764436         5.203691006         4.826347828
6.542764436         5.203691006         8.043912855
10.248203272         3.064354845         1.608782657
10.248203272         3.064354845         4.826347828
10.248203272         3.064354845         8.043912855
7.243850941         8.268045851         1.608782657
7.243850941         8.268045851         4.826347828
7.243850941         8.268045851         8.043912855
4.239498610         3.064354845         1.608782657
4.239498610         3.064354845         4.826347828
4.239498610         3.064354845         8.043912855
1.235146279         8.268045851         1.608782657
1.235146279         8.268045851         4.826347828
1.235146279         8.268045851         8.043912855
2.287192381         3.961533506         0.000000000
2.287192381         3.961533506         3.217565314
2.287192381         3.961533506         6.435130629
11.300249912         9.165224201         0.000000000
11.300249912         9.165224201         3.217565314
11.300249912         9.165224201         6.435130629
8.295896865         3.961533506         0.000000000
8.295896865         3.961533506         3.217565314
8.295896865         3.961533506         6.435130629
5.291544533         9.165224201         0.000000000
5.291544533         9.165224201         3.217565314
5.291544533         9.165224201         6.435130629
1.434319810         0.000000000         0.000000000
1.434319810         0.000000000         3.217565314
1.434319810         0.000000000         6.435130629
10.447377251         5.203691006         0.000000000
10.447377251         5.203691006         3.217565314
10.447377251         5.203691006         6.435130629
7.443024920         0.000000000         0.000000000
7.443024920         0.000000000         3.217565314
7.443024920         0.000000000         6.435130629
4.438672589         5.203691006         0.000000000
4.438672589         5.203691006         3.217565314
4.438672589         5.203691006         6.435130629
11.300249196         1.242157500         0.000000000
11.300249196         1.242157500         3.217565314
11.300249196         1.242157500         6.435130629
8.295896865         6.445848816         0.000000000
8.295896865         6.445848816         3.217565314
8.295896865         6.445848816         6.435130629
5.291544892         1.242157500         0.000000000
5.291544892         1.242157500         3.217565314
5.291544892         1.242157500         6.435130629
2.287192023         6.445848816         0.000000000
2.287192023         6.445848816         3.217565314
2.287192023         6.445848816         6.435130629
3.004352331         1.734563720         0.000000000
3.004352331         1.734563720         3.217565314
3.004352331         1.734563720         6.435130629
0.000000000         6.938254881         0.000000000
0.000000000         6.938254881         3.217565314
0.000000000         6.938254881         6.435130629
9.013057710         1.734563720         0.000000000
9.013057710         1.734563720         3.217565314
9.013057710         1.734563720         6.435130629
6.008705379         6.938254881         0.000000000
6.008705379         6.938254881         3.217565314
6.008705379         6.938254881         6.435130629
0.000000000         3.469127441         0.000000000
0.000000000         3.469127441         3.217565314
0.000000000         3.469127441         6.435130629
9.013056993         8.672818136         0.000000000
9.013056993         8.672818136         3.217565314
9.013056993         8.672818136         6.435130629
6.008704662         3.469127441         0.000000000
6.008704662         3.469127441         3.217565314
6.008704662         3.469127441         6.435130629
3.004352331         8.672818136         0.000000000
3.004352331         8.672818136         3.217565314
3.004352331         8.672818136         6.435130629
0.000000000         0.000000000         1.608782657
0.000000000         0.000000000         4.826347828
0.000000000         0.000000000         8.043912855
9.013056993         5.203691006         1.608782657
9.013056993         5.203691006         4.826347828
9.013056993         5.203691006         8.043912855
6.008704662         0.000000000         1.608782657
6.008704662         0.000000000         4.826347828
6.008704662         0.000000000         8.043912855
3.004352331         5.203691006         1.608782657
3.004352331         5.203691006         4.826347828
3.004352331         5.203691006         8.043912855
}
Hamiltonian = xTB {
  Method = "GFN2-xTB"
  SCC = Yes
  SCCTolerance = 1.0e-3
  MaxSCCIterations = 1000
  Mixer = Broyden {
    MixingParameter = 0.005
    InverseJacobiWeight = 0.5
    WeightFactor = 0.5
    MinimalWeight = 1.0000000000000000
    MaximalWeight = 100000.00000000000
  }
  Charge = 0.0
  KPointsAndWeights = SuperCellFolding {
1 0 0
0 1 0
0 0 1
0.0 0.0 0.0
  }
  ShellResolvedSCC = No
  SpinPolarisation = {}
  Solver = RelativelyRobust {}
  ReadInitialCharges = No
  InitialCharges = {}
  EwaldParameter = 0.0000000000000000
  EwaldTolerance = 1.0000000000000001E-009
  ConvergentSCCOnly = Yes
  ElectricField = {}
  Dispersion = {}
  Solvation = {}
  Electrostatics = GammaFunctional {}
  Differentiation = FiniteDiff {
    Delta = 1.2207031250000000E-004
  }
  ForceEvaluation = "Traditional"
  Filling = MethfesselPaxton {
    Order = 2
    Temperature [Kelvin] = 300
    IndependentKFilling = No
  }
}
Analysis = {
  ProjectStates = {}
  WriteEigenvectors = No
  WriteBandOut = Yes
  MullikenAnalysis = Yes
  WriteNetCharges = No
  AtomResolvedEnergies = No
  CalculateForces = No
}
Options = {
  WriteDetailedOut = Yes
  WriteAutotestTag = No
  WriteDetailedXML = No
  WriteResultsTag = No
  RestartFrequency = 20
  RandomSeed = 0
  WriteHS = No
  WriteRealHS = No
  MinimiseMemoryUsage = No
  ShowFoldedCoords = No
  TimingVerbosity = 1
  WriteCharges = Yes
  WriteChargesAsText = No
  BinaryAccessTypes = {
"stream"
  }
}
ParserOptions = {
  ParserVersion = 13
  WriteHSDInput = Yes
  StopAfterParsing = No
  IgnoreUnprocessedNodes = No
}
Parallel = {
  UseOmpThreads = Yes
  Groups = 1
  Blacs = BlockSize {
32
  }
}
Reks = None {}
Driver = {}
ExcitedState = {}
