Geometry = VaspFormat {
Fe4 S8
1.0
10.7936477661         0.0000000000         0.0000000000
0.0000000000        10.7936477661         0.0000000000
0.0000000000         0.0000000000        10.7936477661
Fe    S
32   64
Cartesian
0.000000000         2.698411942         2.698411942
0.000000000         2.698411942         8.095235825
0.000000000         8.095235825         2.698411942
0.000000000         8.095235825         8.095235825
5.396823883         2.698411942         2.698411942
5.396823883         2.698411942         8.095235825
5.396823883         8.095235825         2.698411942
5.396823883         8.095235825         8.095235825
2.698411942         2.698411942         0.000000000
2.698411942         2.698411942         5.396823883
2.698411942         8.095235825         0.000000000
2.698411942         8.095235825         5.396823883
8.095235825         2.698411942         0.000000000
8.095235825         2.698411942         5.396823883
8.095235825         8.095235825         0.000000000
8.095235825         8.095235825         5.396823883
0.000000000         0.000000000         0.000000000
0.000000000         0.000000000         5.396823883
0.000000000         5.396823883         0.000000000
0.000000000         5.396823883         5.396823883
5.396823883         0.000000000         0.000000000
5.396823883         0.000000000         5.396823883
5.396823883         5.396823883         0.000000000
5.396823883         5.396823883         5.396823883
2.698411942         0.000000000         2.698411942
2.698411942         0.000000000         8.095235825
2.698411942         5.396823883         2.698411942
2.698411942         5.396823883         8.095235825
8.095235825         0.000000000         2.698411942
8.095235825         0.000000000         8.095235825
8.095235825         5.396823883         2.698411942
8.095235825         5.396823883         8.095235825
2.079827987         0.618583994         4.778240090
2.079827987         0.618583994        10.175063973
2.079827987         6.015407676         4.778240090
2.079827987         6.015407676        10.175063973
7.476652031         0.618583994         4.778240090
7.476652031         0.618583994        10.175063973
7.476652031         6.015407676         4.778240090
7.476652031         6.015407676        10.175063973
3.316995735         4.778240090         0.618583793
3.316995735         4.778240090         6.015407676
3.316995735        10.175063973         0.618583793
3.316995735        10.175063973         6.015407676
8.713819618         4.778240090         0.618583793
8.713819618         4.778240090         6.015407676
8.713819618        10.175063973         0.618583793
8.713819618        10.175063973         6.015407676
0.618583994         4.778240090         2.079828309
0.618583994         4.778240090         7.476652031
0.618583994        10.175063973         2.079828309
0.618583994        10.175063973         7.476652031
6.015407676         4.778240090         2.079828309
6.015407676         4.778240090         7.476652031
6.015407676        10.175063973         2.079828309
6.015407676        10.175063973         7.476652031
4.778240090         0.618583994         3.316995735
4.778240090         0.618583994         8.713819618
4.778240090         6.015407676         3.316995735
4.778240090         6.015407676         8.713819618
10.175063973         0.618583994         3.316995735
10.175063973         0.618583994         8.713819618
10.175063973         6.015407676         3.316995735
10.175063973         6.015407676         8.713819618
3.316995735         3.316995735         3.316995735
3.316995735         3.316995735         8.713819618
3.316995735         8.713819618         3.316995735
3.316995735         8.713819618         8.713819618
8.713819618         3.316995735         3.316995735
8.713819618         3.316995735         8.713819618
8.713819618         8.713819618         3.316995735
8.713819618         8.713819618         8.713819618
2.079827987         2.079827987         2.079828309
2.079827987         2.079827987         7.476652031
2.079827987         7.476652031         2.079828309
2.079827987         7.476652031         7.476652031
7.476652031         2.079827987         2.079828309
7.476652031         2.079827987         7.476652031
7.476652031         7.476652031         2.079828309
7.476652031         7.476652031         7.476652031
4.778240090         2.079827987         0.618583793
4.778240090         2.079827987         6.015407676
4.778240090         7.476652031         0.618583793
4.778240090         7.476652031         6.015407676
10.175063973         2.079827987         0.618583793
10.175063973         2.079827987         6.015407676
10.175063973         7.476652031         0.618583793
10.175063973         7.476652031         6.015407676
0.618583994         3.316995735         4.778240090
0.618583994         3.316995735        10.175063973
0.618583994         8.713819618         4.778240090
0.618583994         8.713819618        10.175063973
6.015407676         3.316995735         4.778240090
6.015407676         3.316995735        10.175063973
6.015407676         8.713819618         4.778240090
6.015407676         8.713819618        10.175063973
}
Hamiltonian = xTB {
  Method = "GFN2-xTB"
  SCC = Yes
  SCCTolerance = 1.0e-4
  MaxSCCIterations = 250
  Mixer = Broyden {
    MixingParameter = 0.10
    InverseJacobiWeight = 0.01
    WeightFactor = 0.01
    MinimalWeight = 1.0000000000000000
    MaximalWeight = 100000.00000000000
  }
  Charge = 0.0
  KPointsAndWeights = SuperCellFolding {
1 0 0
0 1 0
0 0 1
0.0 0.0 0.0
  }
  ShellResolvedSCC = No
  SpinPolarisation = {}
  Solver = RelativelyRobust {}
  ReadInitialCharges = No
  InitialCharges = {}
  EwaldParameter = 0.0000000000000000
  EwaldTolerance = 1.0000000000000001E-009
  ConvergentSCCOnly = Yes
  ElectricField = {}
  Dispersion = {}
  Solvation = {}
  Electrostatics = GammaFunctional {}
  Differentiation = FiniteDiff {
    Delta = 1.2207031250000000E-004
  }
  ForceEvaluation = "Traditional"
  Filling = Fermi {
    Temperature = 9.5004460357391702E-004
    IndependentKFilling = No
  }
}
Analysis = {
  ProjectStates = {}
  WriteEigenvectors = No
  WriteBandOut = Yes
  MullikenAnalysis = Yes
  WriteNetCharges = No
  AtomResolvedEnergies = No
  CalculateForces = No
}
Options = {
  WriteDetailedOut = Yes
  WriteAutotestTag = No
  WriteDetailedXML = No
  WriteResultsTag = No
  RestartFrequency = 20
  RandomSeed = 0
  WriteHS = No
  WriteRealHS = No
  MinimiseMemoryUsage = No
  ShowFoldedCoords = No
  TimingVerbosity = 1
  WriteCharges = Yes
  WriteChargesAsText = No
  BinaryAccessTypes = {
 "stream"
  }
}
ParserOptions = {
  ParserVersion = 13
  WriteHSDInput = Yes
  StopAfterParsing = No
  IgnoreUnprocessedNodes = No
}
Parallel = {
  UseOmpThreads = Yes
  Groups = 1
  Blacs = BlockSize {
32
  }
}
Reks = None {}
Driver = {}
ExcitedState = {}
